Name: LEUCINE
PRECURSORMZ: 132.1015
PRECURSORTYPE: [M+H]+
INSTRUMENTTYPE: LC-ESI-QTOF
INSTRUMENT: Waters XeVo ESI-QTOF
SMILES: CC(C)C[C@@H](C(=O)O)N
COLLISIONENERGY: Survey CID 20
RETENTIONTIME: -1
IONMODE: Positive
Links: CAS 328-39-2
Num peaks: 94
53.0244	1.013
54.8207	1.013
55.046	1.013
56.0468	1.013
56.2891	1.013
57.4838	2.025
62.023	1.013
62.4981	1.013
67.0298	1.013
68.0558	1.013
68.9916	2.025
69.0675	11.140
69.4954	1.013
70.0653	3.038
70.982	1.013
71.3988	1.013
71.9409	1.013
71.9568	1.013
72.0847	3.038
72.2042	1.013
72.9387	5.063
73.0263	3.038
73.063	2.025
73.1877	1.013
73.2035	1.013
73.4969	1.013
73.698	1.013
73.9264	1.013
73.9755	1.013
86.0959	180.800
86.2567	3.038
86.6149	1.013
86.6384	1.013
86.7387	1.013
86.7907	3.038
86.8272	1.013
86.8861	1.013
86.9069	2.025
86.9332	1.013
86.9571	1.013
86.9865	1.013
87.0966	14.180
87.1285	1.013
87.1757	1.013
87.2173	2.025
87.2347	1.013
87.2763	1.013
87.2943	1.013
87.3415	1.013
87.3651	1.013
87.4304	1.013
87.4658	1.013
87.6139	1.013
87.7565	1.013
87.8574	1.013
87.9913	2.025
88.095	1.013
88.208	1.013
88.5894	1.013
88.7146	1.013
89.0733	1.013
89.1386	1.013
89.2887	1.013
89.4321	1.013
89.936	1.013
90.1708	1.013
90.4415	1.013
91.0391	1.013
92.6117	1.013
93.0388	1.013
93.467	1.013
94.6099	1.013
97.7792	1.013
97.948	1.013
98.8848	1.013
105.0773	1.013
109.0832	1.013
113.957	2.025
115.9646	1.013
117.0483	2.025
118.0478	1.013
123.9644	2.025
124.7205	1.013
125.976	1.013
128.2115	1.013
132.0747	2.025
132.2823	1.013
132.9463	1.013
134.1985	1.013
134.4554	1.013
139.2134	1.013
296.1494	1.013
515.8459	1.013
526.4929	1.013

Name: PHENYLALANINE
PRECURSORMZ: 166.0853
PRECURSORTYPE: [M+H]+
INSTRUMENTTYPE: LC-ESI-QTOF
INSTRUMENT: Waters XeVo ESI-QTOF
SMILES: C1=CC=C(C=C1)C[C@@H](C(=O)O)N
COLLISIONENERGY: Survey CID 20
RETENTIONTIME: -1
IONMODE: Positive
Links: CAS 63-91-2
Num peaks: 262
52.9232	1.013
54.0349	1.013
59.6164	1.013
65.9449	1.013
67.0555	1.013
67.9353	2.025
70.0456	1.013
74.0194	1.013
75.9999	1.013
76.9695	1.013
77.0349	6.076
77.1419	1.013
78.5059	1.013
79.0547	22.280
79.1751	1.013
79.2259	1.013
79.5588	1.013
79.791	1.013
80.0654	2.025
80.1138	1.013
80.1364	1.013
80.3861	1.013
81.0695	2.025
81.3322	1.013
81.5893	1.013
83.0321	1.013
83.1187	1.013
83.315	1.013
83.6798	1.013
84.0515	1.013
84.4466	1.013
84.9248	2.025
84.953	10.130
85.0357	1.013
85.4338	1.013
86.0023	1.013
87.028	2.025
87.5489	1.013
88.7503	1.013
90.9426	1.013
91.0572	11.140
91.9965	1.013
92.0423	3.038
92.6725	1.013
93.0702	35.160
93.5835	1.013
93.9639	1.013
94.0316	1.013
94.0637	3.038
94.1976	1.013
94.7763	1.013
94.8567	1.013
95.0852	1.013
95.6355	1.013
96.3183	1.013
98.3686	1.013
101.887	1.013
102.0473	1.013
103.052	139.000
103.1122	1.013
103.227	4.051
103.286	2.025
103.4858	1.013
103.5693	1.013
103.6406	1.013
103.8146	1.013
103.8792	2.025
103.905	1.013
103.9699	2.025
104.0581	12.150
104.3641	1.013
104.5003	1.013
104.5324	1.013
104.5713	1.013
104.6554	1.013
104.6943	1.013
104.74	1.013
104.8664	3.038
104.8957	1.013
105.0665	6.076
105.1161	1.013
105.1879	1.013
105.2331	1.013
105.2755	2.025
105.2982	1.013
105.344	1.013
105.5195	1.013
105.6821	1.013
106.0276	1.013
106.2037	1.013
106.426	1.013
107.0483	28.350
107.3233	1.013
107.7901	1.013
108.0399	1.013
108.0795	2.025
108.4686	1.013
108.5014	1.013
108.9573	2.025
109.0301	1.013
109.0963	1.013
109.1557	1.013
109.3345	1.013
109.7589	1.013
110.0283	2.025
111.1037	1.013
111.8129	1.013
112.0879	1.013
112.2756	1.013
113.0691	1.013
113.2311	1.013
115.0248	1.013
115.0723	1.013
115.6097	1.013
117.9925	1.013
118.0546	4.051
118.1991	1.013
119.0652	3.038
119.9551	2.025
120.0799	782.700
120.2726	56.650
120.3513	1.013
120.372	1.013
120.4417	1.013
120.6014	1.013
120.6225	1.013
120.6572	1.013
120.7213	3.038
120.7684	1.013
120.7895	1.013
120.8449	1.013
120.8868	2.025
120.9215	1.013
120.9567	3.038
121.0087	3.038
121.0851	102.100
121.1433	4.854
121.1728	4.619
121.2015	3.703
121.2354	1.013
121.2841	3.038
121.4084	7.786
121.4588	1.013
121.4921	4.051
121.5917	1.013
121.6124	1.013
121.7102	3.038
121.7932	7.089
121.8571	1.013
121.9004	6.076
121.955	2.025
122.0118	4.051
122.0933	4.065
122.1441	1.013
122.2116	3.038
122.2456	2.025
122.2841	1.013
122.319	1.013
122.3684	1.013
122.3893	1.013
122.4312	2.025
122.4665	2.025
122.4945	2.025
122.5293	2.025
122.5717	2.025
122.6205	2.025
122.6711	3.038
122.7365	3.038
122.7805	3.038
122.8241	1.013
122.905	2.025
122.9295	1.013
122.9788	2.025
123.0232	3.038
123.0904	4.051
123.1614	1.013
123.2083	3.312
123.2458	2.025
123.278	2.025
123.3443	1.013
123.429	1.013
123.5203	1.013
123.5483	1.013
123.5978	2.025
123.6472	1.013
123.6754	1.013
123.7033	1.013
123.735	2.025
123.774	1.013
123.8022	2.025
123.9007	2.025
123.9503	2.025
123.9784	1.013
124.0418	2.025
124.1105	3.038
124.1478	1.013
124.2961	2.025
124.3385	2.025
124.4021	2.025
124.4586	1.013
124.6709	1.013
124.7237	3.038
124.9824	2.025
125.1342	2.025
125.2162	1.013
125.3861	1.013
125.4361	1.013
125.9647	2.025
126.2604	1.013
126.289	1.013
126.3245	1.013
126.4098	1.013
126.8451	2.025
126.9161	1.013
127.0518	12.150
127.1375	1.013
127.2734	1.013
127.5021	1.013
127.8316	1.013
128.1898	1.013
128.2186	1.013
128.4914	1.013
128.7789	1.013
128.8148	1.013
128.8506	1.013
128.9009	1.013
129.5565	1.013
130.1629	1.013
130.5535	1.013
130.8434	1.013
131.0497	4.051
131.5545	1.013
131.8743	1.013
132.574	1.013
132.7929	1.013
133.3117	1.013
134.0955	2.025
134.6023	1.013
135.0953	1.013
135.3826	1.013
135.7957	1.013
136.2169	1.013
136.5943	1.013
138.1388	1.013
138.7203	1.013
141.691	1.013
142.4083	1.013
143.014	1.013
144.107	1.013
144.8306	1.013
148.954	1.013
149.0613	3.038
163.1573	1.013
221.7714	1.013
258.4325	1.013
426.4987	1.013
449.7866	1.013
466.4086	1.013
494.2209	1.013
520.577	1.013
532.6871	1.013
571.46	1.013

Name: TRYPTOPHAN
PRECURSORMZ: 205.0965	188.0707
PRECURSORTYPE: [M+H]+	[M+H-H2O]+
INSTRUMENTTYPE: LC-ESI-QTOF
INSTRUMENT: Waters XeVo ESI-QTOF
SMILES: C1=CC=C2C(=C1)C(=CN2)C[C@@H](C(=O)O)N
COLLISIONENERGY: Survey CID 20
RETENTIONTIME: -1
IONMODE: Positive
Links: CAS 73-22-3
Num peaks: 497
51.5676	1.013
52.6928	1.013
55.0555	20.250
55.919	1.013
56.2128	1.013
56.4029	1.013
56.4981	1.013
56.966	3.038
57.0041	1.013
57.073	8.101
57.9748	1.013
58.0759	1.013
58.783	1.013
59.0469	4.051
59.6511	1.013
60.6086	1.013
68.532	1.013
70.0087	3.038
70.0294	1.013
71.8118	1.013
72.2582	1.013
72.9384	1.013
73.0629	1.013
73.714	1.013
73.8227	1.013
74.0238	18.040
74.5814	1.013
74.979	2.025
76.5088	1.013
79.0107	12.150
79.4457	1.013
80.0063	1.013
80.1819	1.013
80.4658	1.013
80.9441	1.013
81.0295	2.025
81.0462	2.025
81.0977	1.013
81.1949	1.013
83.0461	4.051
83.912	1.013
84.1788	1.013
84.9569	2.025
85.065	1.013
85.3398	1.013
87.2706	1.013
87.4657	1.013
88.0172	11.140
88.1904	1.013
88.2797	1.013
88.8699	1.013
89.001	1.013
90.3388	1.013
90.4173	1.013
90.5141	1.013
90.9787	1.013
91.0695	1.013
93.0079	1.013
93.2038	1.013
93.5345	1.013
94.5417	1.013
94.7948	1.013
95.1468	1.013
97.0195	2.025
97.992	1.013
98.0357	8.101
98.0607	1.013
98.5354	2.025
99.1049	1.013
99.7876	1.013
100.2311	1.013
100.822	1.013
101.0582	7.089
101.9381	1.013
103.0478	1.013
105.0772	1.013
105.5585	1.013
107.0491	3.038
108.9575	1.013
109.0629	1.013
110.6301	1.013
111.9804	1.013
113.184	1.013
114.9769	1.013
115.052	8.101
115.2423	1.013
115.2695	1.013
115.8348	1.013
116.0495	2.025
116.1281	1.013
116.1691	1.013
116.6099	2.025
116.9899	1.013
117.0524	7.502
117.0682	18.520
117.2572	1.013
117.4977	1.013
117.6416	1.013
117.9551	2.025
118.0641	283.700
118.251	5.621
118.585	1.013
118.6542	1.013
118.6958	3.038
118.7854	1.013
118.9578	1.013
118.9979	2.410
119.0689	36.460
119.1308	1.013
119.1842	3.038
119.2279	1.013
119.2628	2.507
119.2899	2.025
119.3834	2.025
119.4113	2.025
119.4526	2.985
119.5045	2.025
119.6223	1.013
119.732	4.524
119.7819	1.013
119.8926	2.025
119.9344	3.038
119.9898	2.025
120.034	7.089
120.101	1.013
120.1843	1.013
120.2052	1.013
120.2537	1.013
120.2746	1.013
120.4344	1.013
120.5527	2.025
120.8118	4.646
120.866	1.013
120.894	1.013
120.9913	1.013
121.1586	1.013
121.2213	2.025
121.3051	2.025
121.382	1.013
121.424	1.013
121.4796	1.013
121.5075	1.013
121.7661	1.013
122.0109	2.025
122.0458	1.013
122.1789	1.013
122.2632	1.013
122.4804	1.013
122.5366	1.013
122.905	2.025
123.0176	2.025
123.1895	1.013
123.3583	1.013
123.6891	1.013
123.788	1.013
123.9573	1.013
124.0208	2.025
124.0632	1.013
124.2679	1.013
124.8618	1.013
125.0103	1.013
125.997	1.013
127.0504	5.063
127.0875	1.013
127.6382	1.013
129.0448	1.013
129.2896	1.013
129.4986	1.013
130.0658	25.320
130.1268	1.013
130.7925	2.025
130.8579	1.013
131.0633	3.038
131.1623	1.013
131.3728	1.013
131.6707	1.013
131.7361	1.013
131.9981	1.013
132.08	106.300
132.895	1.013
132.97	3.038
133.0782	12.190
133.1321	2.025
133.2311	1.013
133.2873	5.063
133.3481	1.013
133.414	1.013
133.4871	1.013
133.6336	1.013
133.7071	1.013
133.9854	1.013
134.0514	1.013
134.2202	1.013
134.9331	1.013
135.1539	1.013
135.3604	1.013
136.239	2.025
136.9054	1.013
137.2318	1.013
139.0108	10.130
139.6471	1.013
139.7144	1.013
140.7874	1.013
141.0356	1.013
141.3669	1.013
142.0633	34.430
142.295	1.013
142.3327	1.013
142.4916	1.013
142.9608	1.013
143.0725	42.120
143.302	1.013
143.4461	1.013
143.6358	1.013
143.7878	1.013
143.8485	1.013
143.9397	1.013
144.081	189.200
144.1411	2.025
144.2668	1.013
144.2973	2.025
144.6533	3.038
144.6856	1.013
144.7695	1.013
144.861	1.013
144.8839	1.013
144.9142	1.013
144.9448	1.013
145.0326	2.025
145.0837	25.320
145.1889	1.013
145.2424	1.013
145.273	1.013
145.3418	1.013
145.4182	1.013
145.4488	1.013
145.5405	1.013
145.6091	1.013
145.6398	1.013
145.6857	1.013
145.7507	2.025
145.7858	2.025
145.8309	1.013
145.877	1.013
145.9227	1.013
145.9764	2.025
146.0596	852.000
146.1969	3.038
146.2715	68.930
146.3559	2.025
146.459	1.013
146.5017	2.025
146.7199	2.025
146.7967	1.013
146.874	6.585
146.9454	4.051
147.063	92.210
147.1735	4.051
147.212	2.025
147.2584	5.063
147.3114	4.170
147.4037	1.013
147.4267	1.013
147.4695	2.025
147.5333	5.589
147.601	5.713
147.6364	3.400
147.7015	5.343
147.7422	2.025
147.822	6.780
147.8886	8.101
147.9581	6.076
148.0121	3.038
148.0544	4.051
148.0858	2.025
148.1362	6.076
148.2125	2.025
148.2773	7.089
148.3436	2.025
148.3902	3.038
148.4209	3.038
148.4864	3.038
148.5334	3.132
148.5715	3.239
148.6335	7.089
148.7179	2.025
148.761	5.063
148.807	1.013
148.8492	2.025
148.9098	3.038
148.9616	1.013
148.9926	1.013
149.0583	2.025
149.145	3.038
149.1938	2.025
149.2557	1.013
149.291	2.025
149.3449	2.025
149.426	1.013
149.4724	1.013
149.5034	1.013
149.5876	4.013
149.6661	2.025
149.7674	3.581
149.8262	3.038
149.8833	2.025
149.988	2.025
150.0808	2.025
150.1471	1.013
150.1859	1.013
150.3184	2.025
150.3645	1.013
150.4189	1.013
150.4733	1.013
150.5355	1.013
150.5705	2.025
150.6055	1.013
150.7065	1.013
150.8388	1.013
150.8856	1.013
150.9711	1.013
151.0178	1.013
151.0958	1.013
151.1268	2.025
151.2204	1.013
151.2827	1.013
151.3762	1.013
151.4931	1.013
151.762	2.025
151.8442	2.025
151.9068	2.025
152.0317	1.013
152.0864	1.013
152.2193	1.013
152.2662	1.013
152.3288	1.013
152.7121	1.013
153.2764	1.013
153.4255	1.013
153.5902	1.013
153.6767	1.013
154.0146	1.013
154.408	1.013
154.4395	1.013
154.6522	1.013
154.8177	1.013
155.1805	1.013
155.4456	2.025
155.6386	1.013
156.7669	2.025
157.0178	30.380
157.6368	1.013
157.7801	1.013
158.0348	1.013
158.1384	1.013
158.7366	1.013
158.8563	1.013
159.094	86.290
159.304	2.025
159.3438	1.013
159.5838	1.013
159.7519	1.013
159.8961	1.013
160.0999	17.220
160.1606	1.013
160.2248	1.013
160.337	1.013
160.5136	1.013
160.5456	1.013
160.6983	1.013
160.8188	1.013
160.9393	1.013
161.007	2.025
161.0777	4.051
161.1323	1.013
161.1644	1.013
161.2127	1.013
161.2851	1.013
161.3817	1.013
161.6232	1.013
161.6474	1.013
161.8166	1.013
161.8488	1.013
162.002	1.013
162.1552	1.013
162.4297	1.013
162.5104	1.013
162.7771	1.013
163.1087	2.025
163.3353	1.013
163.4811	1.013
163.8377	1.013
165.0321	1.013
165.4148	1.013
165.7158	2.025
165.8551	2.025
166.4922	1.013
167.0061	14.180
167.9259	1.013
169.7617	1.013
170.0588	65.550
170.1252	1.013
170.2286	2.025
171.04	4.415
171.0692	5.895
171.2637	2.025
171.3007	1.013
171.3505	1.013
171.5247	1.013
171.6492	1.013
171.7654	1.013
171.8942	2.025
172.0229	1.013
172.0691	3.038
172.1808	1.013
172.2224	1.013
172.2556	1.013
172.3222	1.013
172.4304	1.013
172.6384	1.013
173.1549	1.013
173.205	1.013
173.6806	1.013
173.8058	1.013
173.9478	1.013
174.0397	1.013
174.2069	1.013
175.1783	1.013
175.2623	1.013
175.4217	1.013
185.0132	7.089
186.3704	1.013
188.0698	173.600
188.1827	1.013
188.3131	5.063
189.072	25.320
189.227	2.025
189.2968	2.025
189.3666	1.013
189.4537	1.013
189.5362	4.051
189.5845	2.025
189.6368	1.013
189.6719	1.013
189.741	2.025
189.8812	1.013
190.0868	4.043
190.1195	3.046
190.3268	1.013
190.3791	2.025
190.4666	1.013
190.5016	1.013
190.5803	1.013
190.6152	1.013
190.6854	1.013
190.7202	1.013
190.7905	1.013
190.834	1.013
191.0354	1.013
191.3157	1.013
191.3858	1.013
191.4209	1.013
191.6226	1.013
191.6578	1.013
191.956	1.013
192.0525	1.013
192.1579	1.013
192.2106	1.013
193.2396	1.013
193.4335	1.013
194.1656	1.013
194.4128	1.013
195.4389	1.013
195.8557	1.013
197.0542	1.013
198.301	2.025
198.498	1.013
200.332	1.013
201.9943	1.013
202.1746	1.013
203.3474	1.013
203.6273	1.013
206.0578	1.013
207.0776	1.013
210.4096	1.013
210.9707	1.013
223.501	1.013
246.7823	1.013
401.4933	1.013
488.7686	1.013
507.7625	1.013
508.9068	1.013
527.9611	1.013
539.526	1.013
542.6037	1.013
558.1684	1.013
588.9636	1.013

Name: THYMIDINE MONOPHOSPHATE
PRECURSORMZ: 323.0642
PRECURSORTYPE: [M+H]+
INSTRUMENTTYPE: LC-ESI-QTOF
INSTRUMENT: Waters XeVo ESI-QTOF
SMILES: CC1=CN(C(=O)NC1=O)[C@H]2C[C@@H]([C@H](O2)COP(=O)(O)O)O
COLLISIONENERGY: Survey CID 20
RETENTIONTIME: -1
IONMODE: Positive
Links: CAS 365-07-1
Num peaks: 15
81.037	17.220
82.0365	2.025
82.1168	1.013
82.5826	1.013
82.6858	1.013
82.7727	1.013
103.016	1.013
127.0447	1.013
136.9353	1.013
142.59	1.013
224.9627	1.013
232.1367	1.013
261.0666	1.013
279.8721	1.013
325.4161	1.013

Name: ADENOSINE
PRECURSORMZ: 268.104
PRECURSORTYPE: [M+H]+
INSTRUMENTTYPE: LC-ESI-QTOF
INSTRUMENT: Waters XeVo ESI-QTOF
SMILES: Nc1ncnc2n(cnc12)[C@@H]1O[C@H](CO)[C@@H](O)[C@H]1O
COLLISIONENERGY: Survey CID 20
RETENTIONTIME: -1
IONMODE: Positive
Links: CAS 5536-17-4
Num peaks: 572
50.0053	1.013
50.54	1.013
50.6483	1.013
50.8106	1.013
50.928	1.013
51.1319	1.013
51.3725	1.013
51.5403	1.013
52.0143	1.013
53.0615	1.013
55.0209	16.200
56.3316	1.013
56.5508	1.013
56.7892	1.013
56.942	1.013
57.0308	27.340
57.057	1.013
57.7822	1.013
57.9845	1.013
58.0518	1.013
58.8756	1.013
59.0333	3.480
59.0538	8.671
59.5875	1.013
60.5496	1.013
60.599	1.013
60.8461	1.013
61.03	4.051
61.0487	1.013
61.8188	1.013
61.9081	1.013
61.9428	1.013
62.038	1.013
63.4783	1.013
63.8168	1.013
64.1108	1.013
64.9356	1.013
65.416	1.013
65.7239	1.013
67.0248	1.013
69.0324	18.230
69.3316	1.013
69.8126	1.013
69.9077	1.013
70.0295	1.013
70.5453	1.013
70.8381	1.013
71.0088	3.038
72.7383	1.013
72.7762	1.013
72.9328	1.013
73.0282	16.200
73.2148	1.013
73.5077	1.013
73.5997	1.013
74.0245	1.013
74.0792	1.013
74.5923	1.013
74.8061	1.013
75.0476	1.013
75.1079	1.013
76.0884	1.013
77.0252	2.025
77.1756	1.013
77.2422	1.013
77.3314	1.013
79.1864	1.013
80.8816	1.013
80.9382	1.013
82.7263	1.013
83.0262	1.013
84.0107	1.013
84.0516	1.013
85.0254	30.380
85.2055	1.013
85.8262	1.013
85.9204	1.013
86.0259	1.013
86.4968	1.013
86.7325	1.013
87.0365	4.051
87.2173	1.013
87.2527	1.013
87.4658	1.013
88.0239	1.013
88.1545	1.013
88.7741	1.013
88.9236	1.013
89.0011	1.013
89.3604	1.013
89.6058	1.013
90.4357	1.013
91.6993	1.013
92.0208	1.013
94.0007	1.013
94.0424	5.063
94.4558	1.013
95.1528	1.013
95.5118	1.013
96.3809	1.013
97.0266	9.114
97.0538	1.013
97.4283	1.013
97.9545	1.013
98.973	1.013
99.0295	1.013
99.4146	1.013
100.6187	1.013
101.0004	1.013
101.9383	1.013
103.0358	10.130
103.6277	1.013
103.8276	1.013
104.4745	1.013
105.2983	1.013
106.7466	1.013
107.4286	1.013
108.409	1.013
108.8715	2.025
108.9345	2.025
108.9709	1.013
109.0567	1.013
109.6729	1.013
110.1247	1.013
110.8236	1.013
115.0367	19.240
116.0325	1.013
116.4767	1.013
116.6614	1.013
116.9697	1.013
117.0587	1.013
117.4357	1.013
117.8138	1.013
117.9202	2.025
118.4888	1.013
118.8251	3.038
118.8681	3.882
118.9305	2.025
118.9651	1.013
119.0341	18.120
119.796	1.013
119.8444	1.013
120.0317	2.025
120.4418	1.013
120.6434	2.025
121.0055	2.025
121.0614	1.013
121.4695	2.025
121.6894	1.013
122.0672	1.013
122.0953	1.013
122.4315	1.013
123.1615	1.013
123.4642	1.013
123.8233	1.013
124.8267	1.013
125.3297	1.013
126.6881	1.013
127.2592	1.013
127.4809	1.013
129.0379	1.013
130.1124	1.013
131.5437	2.025
131.8089	1.013
132.2605	1.013
132.5812	1.013
132.6616	1.013
132.8366	1.013
133.0061	1.236
133.0497	21.350
133.5825	1.013
133.883	1.013
133.9931	1.013
134.0516	2.025
134.1177	1.013
134.1619	1.013
134.426	1.013
134.4554	1.013
134.6172	1.013
134.6978	1.013
134.8378	1.013
134.8746	1.013
135.0655	2.025
135.1026	1.013
135.2057	1.013
135.3532	1.013
135.4416	1.013
135.6188	1.013
135.7145	1.013
135.7846	2.166
135.8217	2.191
135.8704	5.371
135.8933	6.874
135.9296	8.500
135.9621	5.695
136.0614	8715.000
136.2711	121.500
136.6463	40.510
136.7721	40.510
136.8758	40.510
136.9204	40.510
137.0166	40.510
137.0605	648.100
137.1132	40.510
137.1577	81.010
137.2098	81.010
137.2651	162.000
137.4028	40.510
137.4399	40.510
137.4769	40.510
137.5217	40.510
137.5511	40.510
137.6404	81.010
137.6701	40.510
137.7222	81.010
137.7891	40.510
137.8338	40.510
137.9063	121.500
137.9453	40.510
138.0124	40.510
138.072	121.500
138.1464	81.010
138.2135	40.510
138.258	81.010
138.2996	25.300
138.3635	18.430
138.4318	14.780
138.4637	14.990
138.5245	31.900
138.6013	14.480
138.6349	8.104
138.696	21.980
138.7526	12.860
138.8103	9.725
138.8717	18.540
138.9142	6.991
138.9589	10.360
138.9848	13.750
139.0411	8.146
139.0731	11.140
139.1108	8.404
139.1363	7.953
139.1765	11.570
139.2133	8.309
139.2431	5.574
139.2737	5.574
139.3219	11.370
139.3776	4.875
139.4248	20.460
139.4921	8.405
139.5374	8.896
139.6162	11.110
139.698	7.849
139.7603	16.200
139.8242	11.070
139.8821	4.563
139.9282	9.007
139.9683	8.101
140.0458	9.583
140.0896	3.038
140.1569	3.067
140.2239	4.970
140.2579	6.076
140.3296	5.948
140.3698	5.063
140.4339	4.051
140.4801	3.566
140.5273	4.051
140.573	4.647
140.6375	7.967
140.7063	4.391
140.7388	2.025
140.7724	2.025
140.8369	3.038
140.8649	5.063
140.9215	5.063
140.9795	5.594
141.0452	6.076
141.0873	3.483
141.1259	3.038
141.1637	3.038
141.2163	2.025
141.246	2.023
141.2841	1.013
141.4203	2.025
141.4556	3.038
141.4843	3.696
141.5107	4.051
141.5769	2.461
141.6164	6.491
141.6792	7.720
141.7493	4.271
141.8228	8.638
141.8721	1.013
141.9128	1.391
141.9516	4.050
141.9938	2.658
142.0561	5.063
142.1063	2.025
142.1439	2.025
142.2268	3.038
142.28	4.073
142.3329	2.025
142.412	2.025
142.4425	2.025
142.5219	1.013
142.5447	1.013
142.6128	1.013
142.6428	2.025
142.6733	1.013
142.7414	1.013
142.7906	4.051
142.8208	2.025
142.8984	5.308
142.9343	4.106
143.0746	1.013
143.148	3.038
143.2869	2.025
143.321	3.038
143.4084	1.013
143.5337	2.025
143.6285	1.013
143.7401	3.038
143.7712	3.038
143.803	1.013
143.8867	1.013
143.9246	1.013
143.9881	3.038
144.0236	1.013
144.1071	2.025
144.1759	2.025
144.2704	2.025
144.3208	2.025
144.3963	1.013
144.4877	2.025
144.5528	2.025
144.6169	2.025
144.6629	1.013
144.7697	1.013
144.9678	2.025
145.0213	1.013
145.0518	1.013
145.2083	2.025
145.3267	1.013
145.449	3.038
145.6054	2.025
145.7012	2.025
145.7318	1.013
145.9154	1.013
146.0226	1.013
146.0991	1.013
146.1532	2.025
146.2369	1.013
146.2858	3.038
146.3672	1.013
146.5974	1.013
146.6665	1.013
146.7278	1.013
146.8506	1.013
146.9734	1.013
147.0042	2.025
147.288	2.025
147.3884	1.013
147.4869	3.038
147.527	1.013
147.7577	2.025
147.7964	1.013
147.8658	1.013
147.8967	1.013
147.9813	1.013
148.0238	2.025
148.1124	1.013
148.174	1.013
148.4597	1.013
148.8303	1.013
149.1011	1.013
149.1706	1.013
149.24	3.038
149.4184	1.013
149.4649	1.013
149.5268	1.013
149.6043	1.013
149.7205	1.013
149.7981	1.013
149.9378	1.013
150.1046	2.025
150.1705	1.013
150.3259	1.013
150.528	1.013
150.629	1.013
150.6835	1.013
150.9324	1.013
150.9947	1.013
151.4623	1.013
151.5636	1.013
151.6026	1.013
151.8133	1.013
151.8444	1.013
152.3172	2.025
152.415	1.013
152.6184	1.013
152.7359	1.013
153.1432	1.013
153.4571	1.013
153.6612	1.013
154.0306	1.013
154.2507	1.013
154.3768	1.013
155.465	1.013
155.9631	1.013
156.2876	1.013
156.4382	1.013
156.4698	1.013
156.7473	1.013
156.8902	1.013
156.9755	3.038
157.0648	1.013
157.2634	1.013
157.5495	1.013
157.836	1.013
158.1705	1.013
158.2741	1.013
158.8125	2.025
158.8763	2.025
159.6721	1.013
161.394	2.025
162.212	1.013
163.1413	1.013
164.4874	1.013
164.8288	1.013
165.9778	1.013
166.0676	1.013
166.2146	1.013
166.4924	1.013
167.4584	1.013
169.5887	1.013
169.6217	1.013
169.9602	1.013
170.39	1.013
171.2678	1.013
173.7476	1.013
174.2992	1.013
176.1485	2.025
178.0583	2.025
178.5066	1.013
178.7775	1.013
179.5663	1.013
179.6938	1.013
180.0887	2.025
180.5185	1.013
180.6802	1.013
181.6353	1.013
182.4817	1.013
183.4672	1.013
184.1931	2.025
185.8866	1.013
186.3706	1.013
190.0475	1.013
191.5876	1.013
193.1342	1.013
193.6805	1.013
197.8737	1.013
198.7661	1.013
198.9179	1.013
200.0096	1.013
201.6345	1.013
205.5491	1.013
209.3269	1.013
211.4777	1.013
212.2242	1.013
213.9354	1.013
215.9973	1.013
217.7702	1.013
221.8378	1.013
222.0452	1.013
224.364	1.013
225.9901	1.013
226.2379	1.013
227.0009	1.013
227.7842	1.013
232.108	1.013
233.1027	1.013
235.1097	1.013
238.0038	1.013
240.6892	1.013
240.9944	1.013
245.3021	1.013
250.0876	1.013
252.1256	1.013
256.2574	1.013
262.9544	1.013
268.1051	56.250
268.3757	1.013
268.9672	1.013
269.1091	7.089
269.2593	1.013
269.5809	1.013
269.7888	1.013
269.9764	1.013
270.0286	1.013
270.1224	2.025
270.799	1.013
271.0967	2.025
271.1862	1.013
271.3943	1.013
271.7603	1.013
271.8853	1.013
272.0832	1.013
272.533	1.013
272.8777	1.013
273.5806	1.013
275.6594	1.013
282.8904	1.013
294.5601	1.013
300.9446	1.013
305.8777	1.013
307.8859	1.013
312.6063	1.013
320.7587	1.013
332.783	1.013
348.4529	1.013
356.7793	1.013
368.0206	1.013
379.3876	1.013
388.2253	1.013
395.4485	1.013
397.0491	1.013
402.9802	1.013
417.5311	1.013
420.3982	1.013
422.7665	1.013
432.6717	1.013
432.8298	1.013
437.8796	1.013
439.1536	1.013
441.1886	1.013
441.48	1.013
443.239	1.013
448.9395	1.013
451.3984	1.013
454.0555	1.013
454.2031	1.013
454.3266	1.013
455.9815	2.025
463.5566	1.013
471.7636	1.013
477.752	1.013
480.402	1.013
481.0701	1.013
483.6139	1.013
485.289	1.013
485.9102	2.025
487.7324	1.013
489.8776	1.013
495.3777	1.013
506.6635	1.013
513.677	1.013
518.9297	1.013
523.7198	1.013
525.3303	1.013
528.7767	1.013
530.877	1.013
535.3516	1.013
540.9687	1.013
547.665	1.013
549.7852	1.013
556.2955	1.013
557.1497	1.013
586.8453	1.013
587.1248	1.013
588.4926	1.013
591.9865	1.013

Name: XANTHOSINE
PRECURSORMZ: 285.0835
PRECURSORTYPE: [M+H]+
INSTRUMENTTYPE: LC-ESI-QTOF
INSTRUMENT: Waters XeVo ESI-QTOF
SMILES: OC[C@H]1O[C@H]([C@H](O)[C@@H]1O)n1cnc2c1[nH]c(=O)[nH]c2=O
COLLISIONENERGY: Survey CID 20
RETENTIONTIME: -1
IONMODE: Positive
Links: CAS 146-80-5
Num peaks: 196
54.4783	1.013
55.0179	8.101
55.8244	1.013
56.0231	1.013
57.0348	24.300
57.0664	1.013
57.4499	1.013
58.0371	1.013
58.6032	1.013
59.0507	3.038
59.9157	1.013
60.3135	1.013
60.3283	1.013
61.0305	3.038
62.1875	1.013
63.3724	1.013
64.3189	1.013
65.5288	1.013
69.0334	14.180
70.157	1.013
70.6677	1.013
71.0143	3.740
71.0729	1.013
71.1103	1.013
71.1796	1.013
72.7597	1.013
73.0277	20.250
73.0573	1.013
73.4696	1.013
73.9349	2.025
74.0352	1.013
74.1557	1.013
74.3521	1.013
74.6364	1.013
74.6691	1.013
75.7955	1.013
75.9334	1.013
76.6032	1.013
76.7754	1.013
81.1151	1.013
85.0299	15.190
86.0227	2.025
86.5381	1.013
86.9331	1.013
86.9691	1.013
87.0406	8.101
87.1222	1.013
88.1605	1.013
88.6131	1.013
89.0312	1.013
91.9786	1.013
94.7948	1.013
97.0288	15.190
99.042	1.013
99.6546	1.013
99.965	1.013
103.0416	8.101
103.5373	1.013
104.0343	1.013
104.9607	1.013
108.0732	1.013
108.0927	1.013
108.9904	1.013
109.0831	1.013
109.852	1.013
110.0314	1.013
110.4039	1.013
110.4839	1.013
111.8467	1.013
112.0944	1.013
112.2083	1.013
112.5308	1.013
115.0373	14.750
115.8961	1.013
116.3396	1.013
116.4081	1.013
116.5655	1.013
116.7331	2.025
117.0449	1.013
117.7243	1.013
117.9378	1.013
118.4677	1.013
118.6609	1.013
118.8752	1.013
121.1587	1.013
123.0281	1.013
126.1108	1.013
126.2392	1.013
130.9884	1.013
132.844	1.013
133.0459	30.380
133.1729	1.013
133.9562	2.025
134.0589	2.025
134.1761	1.013
134.3967	1.013
134.47	1.013
134.5215	1.013
135.2427	1.013
135.8843	1.013
136.0104	19.240
136.0765	1.013
136.18	1.013
136.9871	1.013
137.0206	2.025
139.9094	1.013
140.3593	1.013
147.8195	1.013
149.0237	1.013
149.6816	1.013
151.7819	1.013
152.0084	1.013
152.0631	1.013
152.8219	1.013
153.0404	281.500
153.191	2.025
153.257	14.180
153.3235	1.013
153.449	1.013
153.5469	2.025
153.7161	1.013
153.7711	1.013
153.8024	1.013
153.9282	1.013
153.9832	1.013
154.0434	14.180
154.1405	1.013
154.2035	1.013
154.2349	2.025
154.2702	2.025
154.3136	1.013
154.3923	1.013
154.4357	3.936
154.5104	1.013
154.5422	3.038
154.5813	1.013
154.6262	3.038
154.6679	1.013
154.6917	1.013
154.7417	3.038
154.7941	1.013
154.8335	1.013
154.8769	2.025
154.9518	1.013
155.0457	8.101
155.1174	1.013
155.1648	1.013
155.2832	1.013
155.3464	1.013
155.3819	2.025
155.4727	1.013
155.6826	2.025
155.7098	1.013
155.7616	2.025
155.8126	1.013
155.8521	1.013
156.0895	1.013
156.3905	1.013
156.6204	1.013
156.7235	1.013
156.9774	1.013
157.0568	1.013
157.5415	1.013
157.804	1.013
158.258	1.013
158.3298	1.013
158.7605	1.013
158.8803	1.013
159.3758	1.013
159.688	1.013
161.5911	1.013
161.7602	1.013
162.6075	1.013
162.9712	1.013
163.992	1.013
165.9613	1.013
170.0674	1.013
171.1267	1.013
172.7467	1.013
176.0433	1.013
193.3544	1.013
198.6765	1.013
204.3969	1.013
205.958	1.013
224.991	1.013
226.8865	1.013
248.9866	1.013
273.5803	1.013
285.0686	1.013
285.1855	1.013
286.1174	2.025
286.4396	1.013
287.1362	1.013
288.7706	1.013
414.5217	1.013
465.125	1.013

Name: DEOXYADENOSINE MONOPHOSPHATE
PRECURSORMZ: 332.0765
PRECURSORTYPE: [M+H]+
INSTRUMENTTYPE: LC-ESI-QTOF
INSTRUMENT: Waters XeVo ESI-QTOF
SMILES: C1[C@@H]([C@H](O[C@H]1N2C=NC3=C2N=CN=C3N)COP(=O)(O)O)O
COLLISIONENERGY: Survey CID 20
RETENTIONTIME: -1
IONMODE: Positive
Links: CAS 653-63-4
Num peaks: 98
81.0322	66.840
81.1949	1.013
81.8926	2.025
82.0386	5.708
82.1739	1.013
82.2658	2.025
82.4788	1.013
82.7552	1.013
83.0551	1.013
83.1243	1.013
83.1532	1.013
85.2521	1.013
89.0908	1.013
95.6478	1.013
105.7734	1.013
117.0724	1.013
135.6996	1.013
135.9681	3.038
136.0604	367.600
136.1428	1.013
136.2651	16.740
136.4314	1.013
136.6313	1.013
136.6683	1.013
136.7053	1.013
136.7423	2.025
136.8238	2.025
136.8833	2.025
136.933	3.038
136.9944	1.013
137.061	23.290
137.1243	4.051
137.2021	1.013
137.2352	2.424
137.2762	2.025
137.3358	1.013
137.3728	1.013
137.4398	1.013
137.5066	1.013
137.5512	2.025
137.6071	2.025
137.7024	3.369
137.7592	1.013
137.7817	1.013
137.8154	2.025
137.8857	2.025
137.9195	2.025
137.9637	3.038
138.0102	5.063
138.0867	2.025
138.1425	2.025
138.2044	2.737
138.2729	1.013
138.325	1.013
138.4144	1.013
138.4517	1.013
138.5114	1.013
138.6382	1.013
138.725	3.038
138.8172	1.013
138.892	1.013
138.9367	1.013
139.0489	1.013
139.0862	1.013
139.1309	1.013
139.2917	2.025
139.7444	1.013
139.7745	1.013
139.9693	1.013
140.0742	1.013
140.2692	1.013
140.5769	1.013
140.7234	2.025
140.8176	1.013
141.2991	1.013
141.578	1.013
141.6231	1.013
141.9249	1.013
142.0306	1.013
142.4161	1.013
144.3354	1.013
148.0815	1.013
150.4657	1.013
155.9393	1.013
187.332	1.013
215.0114	1.013
216.0814	1.013
222.64	1.013
231.953	1.013
234.0901	1.013
253.9102	1.013
279.4165	1.013
314.0658	1.013
315.0093	1.013
332.0793	1.013
439.4596	1.013
476.2176	1.013
533.2444	1.013

Name: PYRIDOXINE
PRECURSORMZ: 170.0813
PRECURSORTYPE: [M+H]+
INSTRUMENTTYPE: LC-ESI-QTOF
INSTRUMENT: Waters XeVo ESI-QTOF
SMILES: OCc1cnc(C)c(O)c1CO
COLLISIONENERGY: Survey CID 20
RETENTIONTIME: -1
IONMODE: Positive
Links: CAS 65-23-6
Num peaks: 73
51.939	2.025
60.1316	1.013
65.6213	1.013
68.9469	1.013
70.0617	1.013
72.0484	1.013
72.7112	1.013
72.9357	2.025
77.0255	1.013
77.0418	1.013
78.9893	1.013
81.035	1.013
81.9448	1.013
82.008	1.013
83.0782	1.013
84.0979	1.013
84.9597	1.013
85.4044	1.013
85.9321	1.013
86.9332	1.013
88.1605	1.013
88.3986	1.013
89.0551	1.013
89.9405	11.140
89.9903	1.013
92.2096	1.013
92.9227	1.013
93.0607	2.025
93.5281	1.013
95.0664	1.013
96.0822	2.025
97.4349	1.013
101.0192	1.013
108.9507	1.013
110.4306	1.013
111.5254	1.013
112.9548	6.076
113.9402	1.013
113.9738	1.013
114.231	1.013
114.4885	1.013
117.7933	1.013
124.0755	4.988
125.0673	1.013
129.7514	1.013
134.0574	31.390
134.2351	1.013
135.084	3.038
135.486	1.013
136.0394	1.013
136.3503	1.013
136.4832	1.013
136.6165	1.013
136.824	1.013
137.0613	1.013
146.444	1.013
152.0696	21.270
152.1334	1.013
152.4618	1.013
153.0593	4.734
153.206	1.013
154.2036	1.013
154.3531	1.013
154.81	1.013
155.0703	1.013
157.1046	1.013
157.327	1.013
170.0808	4.513
298.8717	1.013
422.4133	1.013
433.2256	1.013
535.8964	1.013
537.5411	1.013

Name: NICOTINE
PRECURSORMZ: 163.1232
PRECURSORTYPE: [M+H]+
INSTRUMENTTYPE: LC-ESI-QTOF
INSTRUMENT: Waters XeVo ESI-QTOF
SMILES: CN1CCCC1C2=CN=CC=C2
COLLISIONENERGY: Survey CID 20
RETENTIONTIME: -1
IONMODE: Positive
Links: CAS 54-11-5
Num peaks: 1289
50.4679	1.013
50.9239	1.013
51.0188	3.038
51.127	1.013
51.2044	1.013
51.3765	1.013
52.0328	1.013
52.1241	1.013
52.1469	1.013
52.2156	1.013
52.6059	1.013
53.0395	11.140
53.1123	1.013
53.4082	1.013
53.561	1.013
53.8813	1.013
54.0369	12.150
54.1286	1.013
54.5392	1.013
54.5675	1.013
54.7079	1.013
55.0446	3.038
55.706	1.013
55.9807	1.013
56.0486	7.089
56.2085	1.013
56.251	1.013
56.6937	1.013
56.952	1.013
57.1672	1.013
57.2631	1.013
57.4499	1.013
57.6903	1.013
58.0327	1.013
58.0643	9.184
58.1096	1.013
58.9043	1.013
58.9389	2.025
59.1626	1.013
59.646	1.013
60.1116	1.013
60.3283	1.013
60.4859	1.013
60.5698	1.013
60.8213	1.013
61.0141	2.025
61.1922	1.013
61.3811	1.013
62.0875	1.013
62.3627	1.013
62.5779	1.013
62.8589	1.013
63.2415	1.013
63.352	1.013
63.534	1.013
64.0198	1.013
64.2378	1.013
64.3699	1.013
65.0435	7.089
65.2011	1.013
65.5032	1.013
66.0992	1.013
66.1766	1.013
66.2848	1.013
66.6413	1.013
66.6727	1.013
66.7034	1.013
66.9522	1.013
67.0531	6.076
67.4925	1.013
67.9771	1.013
68.0399	1.013
68.0819	1.013
68.9419	1.013
69.5164	1.013
69.6644	1.013
70.0652	37.020
70.2152	1.013
70.3373	1.013
70.513	1.013
70.7155	1.013
71.0193	1.013
71.0678	4.051
71.3351	1.013
71.4845	1.013
71.7579	1.013
71.8173	1.013
71.9573	2.025
72.6197	1.013
72.6682	1.013
72.8681	1.013
73.2794	1.013
73.3282	1.013
74.7458	1.013
74.9815	1.013
75.5256	1.013
76.1711	1.013
76.5534	1.013
76.8028	1.013
77.0378	26.890
77.164	1.013
77.6215	1.013
77.9676	3.038
77.996	1.013
78.0323	14.180
78.2533	1.013
78.3766	1.013
78.5111	1.013
78.8372	1.013
78.8826	1.013
78.9162	1.013
79.0505	15.190
79.1409	2.025
79.3447	1.013
79.4837	3.038
79.5535	1.013
79.6665	1.013
79.8984	1.013
80.0486	147.300
80.1875	1.013
80.2123	4.002
80.2326	1.013
80.3661	2.025
80.5055	2.025
80.5684	1.013
80.6702	1.013
80.7711	3.038
80.9408	2.025
80.9609	1.013
80.9895	1.013
81.0265	2.025
81.058	10.130
81.1204	1.013
81.2634	1.013
81.306	2.025
81.4005	1.013
81.4577	2.025
81.515	2.025
81.6007	1.013
81.6811	1.013
81.7837	1.013
81.9098	1.013
81.9562	1.013
82.0066	3.038
82.0641	7.089
82.1799	1.013
82.2142	1.013
82.3178	1.013
82.4902	1.013
82.6169	1.013
82.9571	1.013
82.986	1.013
83.0436	1.013
83.0724	2.025
83.1072	1.013
83.3096	1.013
83.5004	1.013
83.8016	1.013
83.9406	1.013
84.0802	236.000
84.1271	1.013
84.2026	1.013
84.243	8.101
84.534	1.013
84.5633	1.013
84.7088	1.013
84.7588	2.025
84.8111	2.025
84.8488	1.013
84.8809	2.025
84.952	4.051
84.9891	1.013
85.0269	2.032
85.0845	22.360
85.1162	3.038
85.1644	1.013
85.1852	2.025
85.2581	1.013
85.3307	2.025
85.3515	1.013
85.4098	1.013
85.486	1.013
85.5155	2.025
85.5625	2.025
85.6362	4.338
85.7036	2.025
85.7325	1.013
85.7737	2.025
85.8205	1.013
85.8674	1.013
85.8908	1.013
85.9464	2.025
86.0728	2.025
86.114	1.013
86.1435	1.013
86.1786	2.025
86.2496	1.013
86.4263	1.013
86.4732	1.013
86.7089	1.013
86.821	1.013
86.904	1.013
87.0218	1.013
87.0931	1.013
87.2054	1.013
87.229	1.013
87.2588	1.013
87.2824	1.013
87.3414	1.013
87.3595	1.013
87.4241	1.013
87.5489	1.013
87.6256	1.013
87.8573	1.013
87.9228	1.013
88.0089	2.025
88.2198	1.013
88.2554	2.025
88.3272	1.013
88.4285	1.013
88.6194	1.013
88.8964	2.025
89.0073	1.013
89.0391	3.038
89.6301	1.013
89.6901	1.013
89.7619	1.013
90.0477	13.160
90.0805	1.013
90.1348	1.013
90.3452	1.013
90.9063	1.013
90.9305	1.013
90.9844	1.013
91.0028	1.013
91.0531	29.770
91.269	1.013
91.5352	2.025
91.5961	1.013
91.851	1.013
92.0503	347.200
92.1817	2.025
92.2236	14.420
92.5687	1.013
92.5873	1.013
92.6116	1.013
92.658	3.038
92.6907	1.013
92.7548	3.038
92.8187	1.013
92.9104	1.013
92.9502	2.025
93.0022	1.013
93.0581	94.690
93.1079	3.038
93.179	2.025
93.2161	3.038
93.2803	4.051
93.3569	1.013
93.4122	1.013
93.4332	2.091
93.469	3.038
93.5316	2.025
93.5835	1.013
93.6216	4.051
93.6755	1.013
93.7181	1.013
93.791	3.038
93.8168	1.013
93.8471	1.013
93.9297	2.025
93.9651	4.051
94.0644	67.660
94.1666	1.013
94.1886	2.025
94.2096	2.025
94.2403	1.013
94.3082	1.013
94.3477	2.025
94.4311	1.013
94.4557	1.013
94.5011	3.038
94.6344	1.013
94.7394	1.013
94.7763	2.025
94.801	1.013
94.9183	1.013
95.0107	2.025
95.0514	2.025
95.0807	7.479
95.1963	1.013
95.2951	3.038
95.394	1.013
95.5612	1.013
95.5924	1.013
95.6107	1.013
95.7286	1.013
95.772	1.013
95.8401	1.013
96.0533	3.038
96.0813	4.051
96.107	2.025
96.2435	1.013
96.3622	2.025
96.4429	1.013
96.5175	1.013
96.6046	1.013
96.7232	1.013
96.81	2.025
96.9097	2.025
97.0662	1.013
97.2534	1.013
97.2908	1.013
97.4533	1.013
97.666	1.013
97.9419	1.013
98.1202	2.025
98.469	1.013
98.5193	1.013
98.6642	1.013
98.8596	1.013
98.9225	1.013
98.9538	1.013
99.5092	2.025
99.5661	2.025
99.857	1.013
100.0597	1.013
100.2853	3.038
100.5551	1.013
101.0512	1.013
101.1276	2.025
101.2169	1.013
101.2679	1.013
101.3061	1.013
101.4465	1.013
101.5486	1.013
101.9574	2.025
101.983	2.025
102.0278	1.013
102.3865	1.013
102.4635	1.013
102.6817	1.013
102.7777	1.013
102.913	1.013
102.9902	1.013
103.0521	47.590
103.1188	1.013
103.228	1.013
103.46	1.013
103.5373	1.013
103.5988	2.025
103.8017	1.013
103.8988	1.013
103.9955	1.013
104.0152	1.013
104.0497	9.608
104.2801	1.013
104.2993	1.013
104.3448	1.013
104.4029	1.013
104.5522	1.013
104.6102	1.013
104.714	1.013
105.0702	77.560
105.1941	1.013
105.2722	1.013
105.37	1.013
105.6039	1.013
105.6561	1.013
105.7684	3.038
105.8284	2.025
105.884	1.013
105.9362	1.013
105.9625	2.025
106.0659	1607.000
106.2455	175.700
106.3182	2.025
106.3412	1.013
106.3998	1.013
106.449	2.835
106.4783	2.025
106.5176	1.013
106.5869	5.483
106.611	3.038
106.6681	2.025
106.7072	2.025
106.7348	3.038
106.7596	3.038
106.8037	6.817
106.8483	5.322
106.9033	6.455
106.9615	4.051
107.0033	3.038
107.0714	200.200
107.1454	6.789
107.166	5.428
107.1848	4.440
107.2495	9.114
107.2732	7.089
107.3181	7.803
107.3426	8.484
107.3831	11.630
107.4236	11.380
107.4596	5.783
107.5133	7.153
107.5463	5.779
107.5991	5.942
107.6506	9.114
107.6867	4.674
107.7267	6.819
107.7687	7.156
107.8024	4.315
107.8475	3.038
107.8842	4.945
107.9153	5.368
107.951	4.024
107.9876	7.089
108.0497	15.120
108.077	18.910
108.1254	2.025
108.1593	3.758
108.217	7.127
108.2614	10.130
108.2901	3.662
108.3465	3.038
108.3959	3.038
108.4539	3.057
108.4837	3.038
108.528	4.192
108.5646	2.025
108.6071	1.013
108.6624	3.382
108.7206	3.038
108.7526	2.260
108.812	5.063
108.8613	5.814
108.9255	3.117
108.9837	2.025
109.0301	1.013
109.0817	3.038
109.1209	3.032
109.1535	3.649
109.2388	3.038
109.3414	2.025
109.3847	2.025
109.4141	1.013
109.447	1.013
109.5236	3.038
109.5533	1.013
109.5976	5.063
109.6595	1.013
109.7126	1.013
109.739	2.025
109.7855	1.013
109.8185	1.013
109.9072	3.038
109.9849	1.013
110.0166	3.038
110.0607	2.237
110.0854	2.037
110.1087	1.825
110.1645	1.013
110.2173	2.025
110.2906	2.025
110.3664	3.038
110.4236	1.013
110.4903	1.013
110.5673	2.025
110.6104	1.013
110.6702	1.013
110.7368	2.025
110.7834	1.013
110.8438	1.013
110.8705	2.025
110.9037	2.025
110.9636	1.013
111.1508	3.038
111.1776	1.013
111.244	1.013
111.3176	2.025
111.4582	1.013
111.5347	2.025
111.6255	1.013
111.6588	1.013
111.6856	1.013
111.7323	1.013
111.7929	1.013
112.1212	1.013
112.1586	2.025
112.1988	2.025
112.296	1.013
112.5377	1.013
112.6051	1.013
112.645	1.013
112.6789	1.013
112.7393	1.013
112.8202	1.013
112.9076	1.013
112.9652	3.038
113.2129	3.038
113.3121	1.013
113.3997	1.013
113.4403	1.013
113.7239	2.025
113.8588	1.013
114.1294	1.013
114.3596	1.013
114.4071	3.038
114.4818	1.013
114.509	1.013
114.5901	1.013
114.719	1.013
114.7461	1.013
115.0533	218.700
115.147	1.013
115.2489	5.063
115.3035	1.013
115.4803	1.013
115.5654	2.025
115.6572	1.013
115.8075	2.025
115.8414	1.013
115.9065	2.025
115.9606	4.051
116.0563	39.450
116.1895	1.013
116.2513	5.063
116.2919	1.013
116.3467	1.013
116.3911	2.025
116.4289	1.013
116.5024	3.038
116.5451	1.013
116.5721	1.013
116.6303	2.025
116.7229	1.919
116.7569	4.999
116.8582	4.051
116.9014	9.114
116.9499	6.161
116.9984	4.167
117.0565	3153.000
117.1681	2.025
117.2466	574.800
117.3403	3.663
117.3785	4.071
117.4122	2.025
117.4707	5.139
117.5252	1.013
117.5457	1.013
117.5925	14.180
117.6726	8.792
117.7186	13.640
117.7622	2.967
117.8011	8.280
117.8323	9.114
117.8773	8.883
117.9505	22.280
117.9929	7.452
118.063	450.300
118.134	9.807
118.1827	14.550
118.2426	29.010
118.3124	9.200
118.3437	12.620
118.3765	8.196
118.399	7.183
118.4584	14.200
118.4986	13.700
118.5726	12.150
118.6143	13.280
118.6686	11.510
118.7224	15.380
118.775	9.580
118.8326	10.450
118.8692	6.381
118.9063	10.130
118.9492	11.890
118.9773	12.910
119.0162	11.820
119.0752	59.150
119.1481	7.051
119.1785	9.583
119.247	18.860
119.3044	7.265
119.3352	12.720
119.3969	19.850
119.4615	6.076
119.4923	7.878
119.5362	6.620
119.5871	7.860
119.6303	12.620
119.6519	5.844
119.6865	4.486
119.7222	11.720
119.7574	4.420
119.8259	4.051
119.8936	6.586
119.9265	9.268
119.9826	10.310
120.0126	4.474
120.082	861.100
120.1529	4.051
120.2177	3.144
120.2754	55.590
120.3438	4.051
120.3813	5.063
120.428	4.051
120.4746	2.517
120.5258	5.875
120.5672	5.556
120.6526	8.035
120.6783	7.154
120.7406	3.038
120.79	3.509
120.838	4.684
120.8699	3.779
120.8997	4.322
120.9388	8.053
121.0102	5.063
121.0845	97.790
121.1666	7.960
121.2076	2.025
121.2424	2.025
121.2876	6.076
121.3122	3.450
121.3518	8.101
121.4197	7.412
121.4581	6.725
121.4947	4.481
121.5706	7.089
121.6058	4.940
121.6371	2.025
121.6768	3.196
121.7315	3.038
121.7555	2.025
121.8003	7.380
121.8223	7.286
121.8836	3.038
121.9318	8.101
122.0184	2.281
122.0583	6.935
122.1012	25.170
122.1721	1.013
122.2133	3.923
122.2558	3.038
122.281	2.025
122.3262	1.013
122.3544	2.025
122.3847	4.051
122.4184	2.764
122.4593	2.025
122.5373	8.719
122.6051	1.715
122.6521	3.637
122.6879	4.169
122.7251	4.222
122.775	1.013
122.8174	3.038
122.849	2.025
122.8872	1.013
122.919	2.025
122.9576	3.038
123.038	3.944
123.1406	3.010
123.1686	2.025
123.2066	1.914
123.2388	1.840
123.2919	2.025
123.3567	3.038
123.3934	3.038
123.4217	1.013
123.4818	3.038
123.5535	3.038
123.6519	2.620
123.7267	4.871
123.8164	2.025
123.8976	2.025
123.922	3.038
124.1139	3.458
124.1902	2.025
124.2396	1.792
124.3118	3.022
124.4376	1.013
124.4728	1.013
124.573	2.517
124.654	1.435
124.7014	1.274
125.1521	2.025
125.416	2.344
125.4857	1.013
125.7357	1.131
127.5747	2.470
128.1561	1.402
128.484	1.013
128.6783	1.013
129.1745	1.013
129.2755	1.013
129.326	1.013
129.4234	2.025
129.4741	2.025
129.6101	3.200
129.642	1.287
129.683	2.025
129.7708	2.023
129.81	3.803
129.8824	21.170
129.9317	2.986
129.9672	3.215
130.0607	5658.000
130.2647	1210.000
130.3867	11.690
130.4425	1.600
130.4681	2.451
130.5028	4.648
130.533	4.466
130.5608	4.051
130.5992	4.854
130.6324	3.528
130.681	15.960
130.7547	9.848
130.8464	16.630
130.8986	18.080
130.9809	21.320
131.0704	951.000
131.156	12.010
131.198	10.800
131.2745	103.300
131.3384	9.290
131.3729	9.318
131.4525	34.810
131.4858	14.430
131.5271	16.540
131.5721	21.140
131.6057	20.570
131.6532	10.510
131.6949	25.110
131.7472	19.290
131.8003	23.230
131.8364	12.320
131.8697	10.070
131.8983	12.620
131.982	13.330
132.0804	3678.000
132.1958	5.542
132.2813	760.100
132.3622	16.100
132.4114	10.670
132.4521	17.060
132.5177	34.740
132.6085	20.900
132.6652	15.790
132.7137	8.876
132.7915	21.030
132.8399	9.717
132.8846	16.670
132.9536	16.810
133.0153	13.380
133.0882	548.000
133.1714	18.930
133.2214	33.160
133.304	47.460
133.3536	18.910
133.4295	11.110
133.4829	30.440
133.5491	16.980
133.584	18.930
133.634	10.480
133.6706	9.599
133.7154	24.530
133.754	14.930
133.7975	13.660
133.8765	14.950
133.9386	18.340
133.9761	10.430
134.027	14.250
134.0966	155.900
134.1517	15.190
134.1888	6.171
134.2436	18.770
134.3145	20.730
134.3981	22.610
134.4433	7.275
134.4785	10.000
134.5191	12.100
134.5681	5.643
134.6141	13.900
134.647	11.900
134.6899	12.300
134.7754	12.080
134.8683	21.270
134.9081	5.960
134.9526	16.620
135.0055	5.195
135.0493	13.750
135.0985	22.980
135.1414	13.740
135.1744	4.405
135.2172	7.232
135.2501	12.330
135.3046	7.406
135.3811	13.160
135.429	9.124
135.469	11.040
135.5407	9.114
135.5893	10.010
135.6233	10.250
135.6645	5.063
135.6977	5.983
135.7646	12.150
135.8073	2.025
135.8487	4.570
135.8815	4.546
135.9193	8.082
135.9774	7.679
136.022	10.130
136.0679	9.175
136.1191	12.050
136.2102	4.121
136.2739	6.669
136.3358	10.110
136.382	5.850
136.4321	4.854
136.5086	4.934
136.544	7.218
136.6158	3.698
136.647	2.797
136.7113	6.076
136.7481	8.101
136.7921	3.950
136.8208	4.051
136.9093	3.038
136.9423	3.600
137.0151	5.063
137.0686	2.025
137.1017	3.038
137.1316	2.025
137.1793	4.051
137.224	4.960
137.2614	2.335
137.3286	4.051
137.3951	3.876
137.438	3.038
137.4768	1.013
137.5139	1.013
137.5686	5.826
137.6143	2.025
137.6551	1.013
137.7184	2.025
137.7445	1.013
137.7923	2.025
137.845	2.025
137.9208	4.051
137.9602	3.038
138.0195	1.013
138.1072	3.570
138.1686	4.051
138.2167	3.038
138.2802	1.013
138.3217	2.025
138.3489	3.038
138.4145	3.237
138.4704	3.038
138.5487	1.013
138.6121	2.025
138.6831	1.013
138.7688	4.051
138.8064	2.025
138.892	1.013
138.9217	2.025
138.959	1.013
139.0007	2.025
139.1459	1.013
139.2057	2.025
139.2471	2.025
139.2842	2.025
139.4076	1.013
139.4715	2.025
139.4973	1.013
139.5423	2.025
139.6322	1.013
139.707	1.013
139.7818	2.025
139.8381	2.025
139.8794	1.013
139.9169	2.025
139.9429	2.115
139.9768	2.025
140.0907	2.443
140.1642	1.013
140.3442	1.013
140.3743	1.013
140.4193	1.013
140.4718	1.013
140.6654	3.038
140.7331	2.417
140.7574	2.025
140.795	2.025
140.8326	1.013
140.8669	2.025
140.9382	3.038
140.9996	3.038
141.0356	2.025
141.2874	4.051
141.4499	1.013
141.5101	1.013
141.7061	1.013
141.7364	2.025
142.091	2.025
142.1289	1.013
142.2081	2.025
142.2422	1.013
142.3171	2.025
142.3858	1.013
142.469	1.013
142.7488	1.013
142.7714	1.013
142.8245	1.013
142.9382	1.013
143.0897	1.013
143.1314	2.025
143.3095	1.013
143.3322	1.013
143.4384	1.013
143.5295	1.013
143.6206	1.013
143.727	1.013
143.8106	1.013
144.0956	2.025
144.1908	1.013
144.5103	1.013
144.5867	1.013
144.7085	1.013
144.7847	1.013
144.8761	1.013
144.9677	1.013
145.0823	1.013
145.189	1.013
145.3647	1.013
145.4489	1.013
145.5787	1.013
145.8462	2.025
145.9119	2.025
146.0995	5.343
146.2216	1.013
146.3058	1.013
146.3441	1.013
146.5128	1.013
146.9119	1.013
146.9811	1.013
147.0883	3.038
147.2191	1.013
147.2808	1.013
147.7776	2.025
148.104	5.063
148.1739	1.013
148.1972	1.013
148.2589	1.013
148.2898	1.013
148.6216	1.013
148.668	1.013
148.807	1.013
148.8457	1.013
148.9153	1.013
148.9926	1.013
149.082	2.025
149.1086	1.013
149.1473	1.013
149.2402	1.013
149.4182	1.013
149.5	2.025
149.5422	1.013
149.5809	1.013
149.7747	1.013
150.0075	1.013
150.0462	2.025
150.186	1.013
150.3336	1.013
150.4657	1.013
150.5123	1.013
151.0802	1.013
151.4309	1.013
151.6571	1.013
151.7272	1.013
151.86	1.013
151.8834	1.013
152.0474	1.013
152.5835	2.025
152.8061	1.013
153.002	1.013
153.3941	1.013
154.7941	1.013
156.0695	2.025
157.5335	1.013
157.8836	1.013
158.3059	1.013
158.3856	1.013
159.2239	1.013
159.2639	1.013
159.4558	1.013
159.776	1.013
159.8641	1.013
160.2008	1.013
160.4655	1.013
160.6181	1.013
160.8871	2.025
161.1162	1.013
161.728	1.013
161.7925	1.013
162.0585	1.013
162.115	1.013
162.6155	1.013
162.6802	1.013
162.8337	1.013
162.8988	2.025
162.9469	1.013
163.0428	4.051
163.1237	1006.000
163.2059	1.013
163.347	74.940
163.5298	1.013
163.6432	1.013
163.6919	1.013
163.7625	3.038
163.8216	1.013
163.8674	2.937
163.9083	4.051
164.0009	3.038
164.1275	157.400
164.2092	2.855
164.2721	5.666
164.3555	7.673
164.3846	6.370
164.4385	4.753
164.4765	2.616
164.5305	8.893
164.5767	8.893
164.6664	8.613
164.7146	3.709
164.768	5.966
164.8228	3.038
164.8994	5.063
164.9397	5.063
164.9996	7.061
165.0444	2.025
165.1363	58.620
165.2578	6.076
165.3503	3.038
165.3785	3.038
165.4342	5.521
165.5236	11.140
165.6105	1.013
165.6453	3.038
165.7045	3.038
165.7544	2.409
165.8185	2.962
165.8502	3.114
165.8878	1.013
165.9585	4.051
166.043	1.013
166.1524	13.780
166.2226	1.013
166.3112	9.306
166.3899	3.038
166.4841	2.025
166.5413	1.013
166.619	4.051
166.7048	2.025
166.7417	2.025
166.7946	3.038
166.8521	4.051
166.9053	2.025
166.9762	2.494
167.0323	1.013
167.1019	2.025
167.1633	2.025
167.2247	2.025
167.319	2.025
167.401	2.025
167.4748	1.013
167.5075	1.013
167.5525	2.025
167.5895	2.025
167.6546	2.025
167.7375	2.025
167.8154	3.038
167.9178	1.013
167.9588	1.013
168.0984	1.013
168.1436	2.025
168.2321	3.038
168.308	2.025
168.5423	1.013
168.5999	1.013
168.6328	1.013
168.7234	1.013
168.8139	1.013
168.8798	1.013
168.995	1.013
169.0527	1.013
169.3906	1.013
169.4321	3.038
169.6133	1.013
169.8197	1.013
169.9188	1.013
170.1501	1.013
170.5801	1.013
171.0559	2.025
171.1101	1.013
171.7654	1.013
172.0812	1.013
172.1892	1.013
173.23	1.013
173.9062	1.013
173.973	1.013
174.0147	1.013
174.1485	1.013
174.4999	1.013
174.5417	1.013
174.9269	1.013
174.9773	1.013
175.0359	1.013
175.4384	1.013
175.6988	1.013
176.0097	1.013
177.357	1.013
179.3794	1.013
180.0759	1.013
180.7908	1.013
181.1107	2.025
181.4133	1.013
181.9	1.013
183.5186	1.013
186.7081	1.013
190.0998	1.013
192.4041	1.013
195.4921	1.013
195.8999	1.013
195.9975	1.013
199.1144	1.013
199.2753	1.013
199.4274	1.013
200.0625	3.038
206.4129	1.013
209.1617	1.013
211.7629	1.013
214.0835	1.013
214.8628	1.013
215.8483	1.013
216.0903	1.013
218.0414	1.013
220.6786	1.013
222.5269	1.013
224.1314	2.025
228.7698	1.013
229.1152	1.013
232.252	1.013
239.0796	1.013
239.5019	1.013
242.1161	11.140
243.1132	1.013
245.9272	1.013
247.8983	1.013
248.3974	1.013
249.5873	1.013
252.1059	1.013
253.5569	1.013
254.0915	2.025
254.137	2.025
257.7611	1.013
261.2	1.013
261.661	1.013
262.8411	1.013
264.6928	1.013
267.4937	1.013
273.4023	1.013
279.3948	1.013
281.3149	1.013
288.3517	1.013
289.525	1.013
290.6573	1.013
292.3997	1.013
297.5568	1.013
309.9807	1.013
310.2245	1.013
316.6191	1.013
338.4952	1.013
339.1946	1.013
342.5634	1.013
346.1261	1.013
362.1132	1.013
362.5353	1.013
366.3338	1.013
368.4945	1.013
368.8972	1.013
373.0695	1.013
373.7298	1.013
377.5	1.013
379.3873	1.013
382.708	2.025
387.5367	1.013
392.7559	1.013
395.3463	1.013
395.901	1.013
398.3762	1.013
403.0943	1.013
410.0426	1.013
412.6262	1.013
414.611	1.013
414.7267	1.013
415.8248	1.013
418.6124	2.025
419.0869	1.013
424.2001	1.013
424.8268	1.013
427.4423	1.013
427.5462	1.013
429.4362	1.013
435.1272	1.013
439.0328	1.013
440.5467	1.013
441.9579	1.013
444.214	1.013
444.4384	1.013
446.0694	1.013
448.8581	1.013
452.4499	1.013
454.1364	1.013
456.5155	1.013
457.1109	1.013
467.8878	1.013
470.7852	1.013
476.1966	2.025
478.1835	1.013
481.39	1.013
482.572	1.013
483.6984	1.013
484.1718	1.013
486.4887	1.013
488.6986	1.013
492.6574	1.013
493.389	1.013
495.6434	1.013
496.4767	1.013
496.8579	1.013
498.4984	1.013
500.537	1.013
501.033	1.013
501.3159	1.013
510.7502	1.013
516.0484	1.013
520.5187	1.013
526.1139	1.013
527.9028	1.013
529.826	1.013
536.0433	1.013
537.1428	1.013
537.9516	1.013
543.2992	1.013
547.0433	1.013
552.2397	1.013
552.6417	1.013
552.8801	1.013
554.6537	1.013
557.5543	1.013
561.796	1.013
564.4863	1.013
564.9517	1.013
565.7834	1.013
567.759	1.013
568.3757	1.013
568.7678	2.025
570.3568	1.013
570.7821	1.013
571.5969	1.013
572.1149	1.013
573.1157	1.013
575.6966	1.013
580.0049	1.013
581.5942	1.013
584.7482	1.013
587.983	1.013
590.0289	1.013
590.8589	1.013
591.1199	1.013
593.1566	1.013
597.0363	1.013
597.6553	1.013
598.9169	2.025

Name: CAFFEINE
PRECURSORMZ: 195.0883
PRECURSORTYPE: [M+H]+
INSTRUMENTTYPE: LC-ESI-QTOF
INSTRUMENT: Waters XeVo ESI-QTOF
SMILES: CN1C=NC2=C1C(=O)N(C(=O)N2C)C
COLLISIONENERGY: Survey CID 20
RETENTIONTIME: -1
IONMODE: Positive
Links: CAS 58-08-2
Num peaks: 1324
51.3449	1.013
52.019	1.013
52.4172	1.013
52.8447	1.013
53.6122	1.013
53.8025	1.013
54.0339	6.076
54.5158	1.013
54.6142	1.013
54.9285	1.013
55.0431	3.038
55.3609	1.013
55.5452	1.013
55.8523	1.013
56.0503	65.820
56.8513	1.013
56.9468	1.013
56.9613	1.013
57.0488	24.300
57.1621	1.013
57.2391	1.013
57.287	2.025
57.5605	1.013
57.6136	1.013
57.6421	1.013
57.6617	1.013
57.8784	1.013
57.9165	1.013
58.0406	3.038
58.1146	1.013
58.182	1.013
58.245	1.013
58.526	1.013
58.9388	1.013
59.0459	1.013
59.5874	1.013
59.6163	1.013
59.7487	1.013
59.8614	1.013
59.9248	2.025
60.0429	1.013
60.5002	1.013
60.5301	1.013
60.6288	1.013
61.0239	1.013
61.108	1.013
61.7983	1.013
62.2276	1.013
62.3225	1.013
62.3726	1.013
62.4227	1.013
62.5375	1.013
62.7384	1.013
62.9493	2.025
64.4509	1.013
66.455	1.013
66.4911	1.013
66.7396	1.013
66.786	1.013
66.8329	1.013
67.0294	7.089
67.1336	1.013
67.9999	3.038
68.0477	6.076
68.516	1.013
68.7843	1.013
68.9996	1.013
69.0448	464.900
69.1912	18.230
69.4633	1.013
69.6063	1.013
69.659	1.013
69.692	3.038
69.7197	2.025
69.7437	3.038
69.77	1.013
69.7915	1.013
69.823	2.025
69.8551	2.025
69.8866	1.013
69.9292	1.013
69.9583	2.025
69.9739	2.025
70.0033	1.013
70.0456	25.580
70.1121	3.038
70.1464	1.013
70.186	8.591
70.2409	3.349
70.2685	1.013
70.3261	3.038
70.3906	1.013
70.439	2.025
70.4707	1.013
70.5116	3.038
70.5396	1.013
70.598	1.013
70.6381	2.025
70.6676	2.025
70.7204	1.013
70.8083	3.038
70.8648	1.013
70.9769	1.013
71.0237	3.908
71.0623	1.013
71.1421	1.013
71.1583	1.013
71.1957	1.013
71.2196	2.025
71.2438	1.013
71.2756	1.013
71.3506	1.013
71.4149	1.013
71.49	1.013
71.5358	2.025
71.5757	1.013
71.6827	1.013
71.7635	1.013
71.919	1.013
71.946	1.013
72.1991	1.013
72.2689	1.013
72.323	1.013
72.5333	1.013
72.884	1.013
72.9378	5.579
72.9813	1.013
73.0413	1.013
73.0844	1.013
73.323	1.013
73.5018	1.013
73.7629	1.013
73.7902	1.013
74.0517	1.013
74.0791	1.013
74.2206	1.013
74.33	2.025
74.6856	1.013
74.7021	1.013
74.7349	1.013
74.8419	2.025
75.179	1.013
76.0937	1.013
76.387	1.013
76.4149	1.013
77.0364	1.013
77.1197	1.013
77.2922	1.013
77.6156	1.013
79.0287	1.013
79.0514	2.025
79.5138	1.013
79.5759	1.013
81.0452	22.280
81.2747	1.013
81.3148	1.013
81.3376	1.013
81.3777	1.013
81.612	1.013
81.8584	1.013
81.887	1.013
82.0534	21.270
82.1106	1.013
82.7147	1.013
82.7524	2.025
82.8071	1.013
82.9341	1.013
82.9625	1.013
82.9989	3.038
83.0605	334.700
83.1876	1.013
83.22	10.470
83.2689	1.013
83.338	1.013
83.425	1.013
83.506	2.025
83.5698	1.013
83.6743	1.013
83.7727	1.013
83.8251	1.013
83.8597	1.013
83.8769	1.013
83.912	1.013
83.9406	1.013
84.0276	3.795
84.0626	35.050
84.1045	3.038
84.1849	1.013
84.2171	2.025
84.2427	1.013
84.2661	1.013
84.3018	3.038
84.3477	3.038
84.3941	1.013
84.473	3.038
84.4991	1.013
84.5485	2.025
84.6446	3.038
84.7148	1.013
84.8041	3.038
84.8549	1.013
84.9014	1.013
84.9221	2.025
84.948	1.013
85.0065	3.038
85.1669	2.025
85.3219	1.013
85.3576	1.013
85.4042	1.013
85.4392	2.025
85.533	2.025
85.5856	1.013
85.6033	1.013
85.6617	1.013
85.7325	1.013
85.791	2.025
85.8617	1.013
85.8907	1.013
85.9141	1.013
85.9437	2.025
86.0552	1.013
86.0818	2.025
86.1786	1.013
86.1965	1.013
86.2496	1.013
86.2965	1.013
86.4111	2.025
86.4318	1.013
86.5641	2.025
86.6971	1.013
87.0695	1.013
87.134	1.013
87.2408	1.013
87.5901	1.013
87.7445	1.013
87.8099	1.013
87.9582	1.013
88.2916	1.013
88.3509	1.013
88.5117	1.013
88.5298	1.013
88.9533	1.013
89.1089	1.013
89.1328	1.013
89.1925	1.013
89.4558	1.013
89.564	1.013
89.588	1.013
89.6239	1.013
89.7561	1.013
89.8217	1.013
90.2067	1.013
90.5862	1.013
90.8879	1.013
90.9666	1.013
91.0935	1.013
91.1114	1.013
91.4992	1.013
92.234	1.013
92.4106	1.013
92.9591	1.013
93.047	12.930
93.6569	1.013
93.8289	1.013
93.9701	1.013
94.0497	3.038
94.5478	2.025
94.9676	1.013
95.0292	9.938
95.0636	2.025
95.3509	1.013
95.6354	1.013
95.6914	1.013
95.7657	1.013
96.0262	1.013
96.0638	1.013
96.0886	1.013
96.4861	1.013
96.5358	1.013
96.5981	1.013
97.0389	61.720
97.203	2.025
97.2342	1.013
97.3221	1.013
97.4597	2.025
97.5114	3.038
97.8291	1.013
97.9293	1.013
98.0045	1.013
98.0323	2.025
98.0672	1.013
99.0419	1.013
99.1554	1.013
99.4084	1.013
99.604	1.013
99.781	1.013
99.9649	1.013
100.0775	3.038
100.523	1.013
100.5423	1.013
100.6119	1.013
101.823	1.013
102.1301	1.013
102.1557	1.013
102.3993	1.013
102.9834	1.013
104.2992	1.013
105.0514	1.013
105.0708	1.013
105.5256	1.013
105.8839	1.013
106.0667	1.013
106.2036	1.013
106.3082	1.013
106.6416	1.013
106.9938	3.038
107.1525	1.013
107.4284	1.013
107.4941	1.013
107.7305	1.013
107.816	2.025
108.0563	21.270
108.2905	1.013
108.4088	1.013
108.495	1.013
108.5806	1.013
108.6599	1.013
108.9574	1.013
109.0386	143.000
109.1424	1.013
109.2174	3.038
109.3546	1.013
109.6063	1.013
109.6392	1.013
109.6924	1.013
109.7588	1.013
109.8053	1.013
109.9115	1.013
109.9662	3.189
110.0704	2001.000
110.1906	1.013
110.2522	266.500
110.3371	1.013
110.3703	1.013
110.4418	3.038
110.4898	4.051
110.5302	1.013
110.5668	3.038
110.6237	5.063
110.6574	5.063
110.6968	2.025
110.737	5.063
110.7842	7.766
110.8584	7.089
110.8888	7.623
110.9193	5.664
110.974	4.417
111.0673	264.800
111.1259	16.280
111.1729	6.166
111.2163	11.210
111.255	19.560
111.2916	12.270
111.3138	11.190
111.3465	3.038
111.3963	5.119
111.4385	12.530
111.5028	6.771
111.5599	11.770
111.5971	8.626
111.6435	7.503
111.7001	6.314
111.7288	7.983
111.7591	5.157
111.8212	7.089
111.8731	4.626
111.8996	5.193
111.9284	5.063
111.9564	7.089
112.0599	18.190
112.0943	7.131
112.1419	10.260
112.1833	7.507
112.2467	3.038
112.2859	2.025
112.3472	5.063
112.3762	3.038
112.4313	3.038
112.4697	6.542
112.521	2.025
112.5762	6.076
112.6384	3.038
112.69	5.063
112.7239	3.038
112.7536	4.212
112.7901	5.229
112.8598	5.063
112.8922	4.646
112.936	6.076
112.968	1.013
113.0188	2.025
113.0608	3.038
113.1141	5.063
113.1769	2.025
113.234	2.025
113.3039	3.791
113.3446	4.252
113.3862	5.716
113.427	4.051
113.4536	5.063
113.514	4.051
113.5628	3.038
113.6033	4.051
113.6931	2.025
113.7413	3.038
113.8428	3.038
113.8792	2.025
113.9059	1.013
113.974	7.089
114.0414	1.013
114.0954	2.025
114.1429	1.013
114.2071	3.038
114.2579	3.038
114.3052	1.013
114.3801	1.013
114.4002	1.013
114.4441	2.025
114.4953	1.013
114.5358	1.013
114.5562	1.013
114.5965	4.051
114.6513	1.013
114.6715	2.025
114.7632	3.038
114.807	1.013
114.8479	1.013
114.8783	2.025
114.9264	2.025
114.9635	2.025
114.9905	1.013
115.0515	1.013
115.0886	7.089
115.1671	1.013
115.2488	1.013
115.3034	1.013
115.3852	1.013
115.412	2.025
115.4393	1.013
115.4938	1.013
115.5348	1.013
115.634	2.025
115.6779	1.013
115.7086	2.025
115.7867	1.013
115.8277	1.013
115.8484	1.013
115.8889	1.013
115.9097	1.013
115.9542	2.025
116.0186	3.038
116.0564	2.025
116.0804	1.013
116.2989	1.013
116.3943	1.013
116.4151	1.013
116.5928	2.008
116.6268	4.051
116.7158	1.013
116.8667	1.013
116.9695	1.013
116.9898	1.013
117.0296	3.038
117.1751	1.013
117.1955	1.013
117.2367	1.013
117.278	1.013
117.2984	1.013
117.4151	1.013
117.5114	2.025
117.8441	2.025
117.8927	2.025
117.9581	1.013
118.0131	2.025
118.0543	1.013
118.1646	1.013
118.3023	1.013
118.5163	1.013
118.5783	2.025
118.7233	1.013
118.7438	1.013
118.8059	1.013
119.0064	1.013
119.0686	2.025
119.29	1.013
119.6362	1.013
119.7958	1.013
120.0107	1.013
120.0524	2.025
120.1216	1.013
120.2882	1.013
120.3372	1.013
120.7683	1.013
121.0332	1.013
121.4795	1.013
121.6123	1.013
121.7204	2.025
121.976	1.013
122.0249	1.013
122.0735	7.132
122.172	1.013
122.2138	1.013
122.4381	1.013
122.6555	1.013
122.6836	1.013
122.789	1.013
122.8662	3.038
122.9086	3.038
122.9503	3.038
123.0403	84.430
123.1544	1.013
123.2178	2.025
123.2457	2.025
123.3514	1.013
123.397	2.025
123.5937	2.025
123.6471	1.013
123.7246	1.013
123.8373	1.013
124.0034	2.025
124.0393	7.089
124.0984	1.013
124.1267	1.013
124.2323	1.013
124.4443	1.013
124.5294	1.013
124.7129	1.013
125.046	1.013
125.0671	1.013
125.1382	1.013
125.4783	1.013
125.5564	1.013
125.6023	2.025
125.6276	1.013
125.8723	2.025
126.1037	1.013
126.4028	1.013
126.4382	2.025
126.4668	1.013
126.524	1.013
126.6024	1.013
126.6306	1.013
126.6948	1.013
126.7876	1.013
126.9376	1.013
126.9946	1.013
127.052	3.038
127.3946	1.013
127.4416	2.025
127.8097	1.013
128.3446	2.025
128.4053	1.013
129.506	1.013
130.2063	1.013
130.6477	1.013
130.6767	1.013
131.1114	1.013
131.3074	1.013
131.6269	1.013
131.8817	1.013
132.3477	1.013
133.019	1.013
133.3556	1.013
133.6003	2.025
133.7655	1.013
133.8167	1.013
134.0644	3.038
134.3376	1.013
134.6976	1.013
134.8668	1.013
135.0681	18.900
135.1687	1.013
135.2054	1.013
135.2498	1.013
135.5005	1.013
135.6627	1.013
135.7587	1.013
135.9137	2.025
135.9727	1.013
136.056	15.040
136.1206	2.025
136.1723	1.013
136.3055	1.013
136.4313	2.025
136.5054	1.013
136.646	1.013
136.7276	1.013
136.9126	1.013
136.9593	3.038
137.0669	6.076
137.1576	2.025
137.2428	2.025
137.3059	1.013
137.3357	1.013
137.4767	1.013
137.5439	3.038
137.6699	1.013
137.7072	2.052
137.752	2.025
137.7965	2.025
137.8867	8.618
137.9533	17.390
138.0551	8088.000
138.1386	1.013
138.2694	1511.000
138.3997	86.800
138.4665	1.013
138.5355	4.658
138.5698	3.546
138.622	3.744
138.6668	7.304
138.7074	13.390
138.755	18.120
138.7933	11.640
138.8405	15.500
138.8985	25.760
138.9315	24.780
138.9627	16.270
139.0714	1084.000
139.1439	13.230
139.2123	43.500
139.2763	103.300
139.3573	61.290
139.4928	99.360
139.5477	21.610
139.608	28.920
139.6465	44.610
139.7384	49.490
139.7853	24.390
139.8276	21.100
139.8835	38.020
139.97	37.030
140.0785	122.000
140.1927	8.802
140.2364	22.010
140.2908	22.330
140.3233	16.850
140.3906	27.080
140.4421	19.320
140.4752	14.210
140.5456	21.490
140.6158	17.770
140.6465	19.340
140.6775	21.000
140.7281	34.390
140.8158	17.080
140.8707	34.860
140.9195	10.340
140.9571	8.197
141.0005	16.010
141.047	18.590
141.1266	13.950
141.1697	20.580
141.227	16.950
141.2582	20.220
141.3189	5.282
141.3896	22.720
141.4373	16.450
141.4838	15.440
141.5603	7.283
141.5993	9.720
141.6494	17.880
141.6905	10.470
141.7527	8.085
141.8029	9.650
141.8464	14.020
141.9084	7.688
141.9496	7.643
141.9804	9.117
142.0409	6.995
142.0992	5.600
142.1948	15.940
142.2464	16.450
142.3053	10.660
142.3681	5.287
142.3984	8.241
142.4302	7.089
142.4689	4.051
142.5096	6.734
142.5541	3.038
142.6125	8.035
142.655	10.050
142.7221	9.543
142.7597	7.089
142.8434	7.089
142.9019	6.058
142.9638	3.737
143.0006	6.390
143.0413	5.036
143.103	3.038
143.1576	7.543
143.2043	4.434
143.2411	5.063
143.2724	3.579
143.3051	3.809
143.3496	6.076
143.411	4.911
143.4418	6.229
143.5219	1.013
143.5573	5.063
143.6368	5.510
143.6934	6.985
143.7515	6.064
143.7923	3.569
143.8319	7.089
143.881	6.649
143.928	3.038
143.9763	4.051
144.0293	3.378
144.0685	3.038
144.1079	5.833
144.1541	3.865
144.1819	2.211
144.2374	10.130
144.3041	4.051
144.3587	2.647
144.4048	3.298
144.439	6.829
144.4952	1.013
144.5505	3.038
144.6001	2.912
144.6421	3.272
144.6931	1.013
144.7287	1.606
144.7613	3.038
144.8151	1.013
144.8527	2.025
144.9014	3.038
144.9525	1.013
145.0031	1.598
145.0302	2.452
145.0897	1.013
145.1356	2.025
145.2036	4.051
145.257	4.051
145.3188	3.038
145.3644	3.038
145.4034	2.266
145.4487	2.025
145.4831	6.076
145.6015	1.013
145.6322	2.025
145.7008	1.013
145.7773	1.013
145.8004	1.013
145.8452	3.500
145.938	1.013
145.9653	2.028
145.991	2.025
146.0377	2.025
146.1313	3.038
146.2326	2.025
146.2828	1.013
146.3444	3.038
146.4897	1.013
146.5434	1.013
146.5782	2.025
146.636	2.025
146.7198	2.025
146.858	1.013
146.9294	3.038
146.9617	2.025
147.0345	1.013
147.0808	1.013
147.1346	1.013
147.2038	1.013
147.2498	1.013
147.3152	2.025
147.373	1.013
147.4653	1.013
147.6345	2.025
147.6961	1.013
147.7655	1.013
147.8655	1.013
147.916	2.025
147.9697	2.025
148.0736	1.013
148.1431	1.013
148.197	2.025
148.2427	2.025
148.2897	1.013
148.3128	1.013
148.4361	1.013
148.498	1.013
148.5674	2.025
148.6215	1.013
148.6447	1.013
148.8224	1.013
148.8611	1.013
149.2014	1.013
149.2556	1.013
149.3174	1.013
149.364	1.013
149.3949	1.013
149.5653	1.013
149.6041	1.013
149.668	3.038
149.7746	1.013
149.8134	2.025
149.856	2.025
150.0851	3.038
150.1781	1.013
150.3568	1.013
150.4114	3.038
150.4503	3.038
150.5898	1.013
150.6676	1.013
150.7065	1.013
150.7377	1.013
150.8776	1.013
150.9789	2.025
151.0256	1.013
151.0936	16.200
151.4151	1.013
151.4854	1.013
151.5768	3.038
151.7272	2.025
152.0707	1.013
152.1291	2.975
152.1645	1.013
152.2583	1.013
152.313	1.013
152.3599	1.013
152.399	1.013
152.516	3.038
152.6103	1.013
152.6729	1.013
152.7512	1.013
152.8843	1.013
153.0411	1.013
153.143	1.013
153.2371	1.013
153.292	1.013
153.3234	1.013
153.6452	1.013
153.6844	1.013
153.7473	1.013
153.8102	1.013
153.8338	1.013
153.889	3.038
154.0145	1.013
154.0775	1.013
154.1168	1.013
154.282	1.013
154.6678	1.013
154.9043	1.013
154.9359	1.013
155.0463	1.013
155.07	1.013
155.1173	1.013
155.3343	2.025
155.6385	1.013
156.2399	2.025
156.2715	1.013
156.3111	1.013
156.644	1.013
156.7947	1.013
156.9693	1.013
157.0408	1.013
157.2115	2.025
157.5095	1.013
157.5811	1.013
157.6846	1.013
157.9551	1.013
158.4093	1.013
158.5724	2.025
158.9565	2.025
159.1598	1.013
159.9966	2.025
160.2166	1.013
160.5215	1.013
160.6741	1.013
161.1483	1.013
161.5184	1.013
161.6151	1.013
161.6715	1.013
162.0181	1.013
162.0786	2.025
162.3166	1.013
162.6558	1.013
162.7608	1.013
163.0594	48.610
163.1653	1.013
163.4567	1.013
163.5215	1.013
163.7161	1.013
163.7972	1.013
164.0242	1.013
164.0644	5.063
164.2921	1.013
164.3246	2.025
164.4221	2.025
164.4709	1.013
165.0646	1.013
165.2762	1.013
165.5289	1.013
165.8061	2.025
166.0673	2.025
166.4349	1.013
166.5166	1.013
166.5576	1.013
166.7456	1.013
167.368	1.013
167.893	1.013
168.0654	1.013
168.1805	1.013
169.0196	1.013
169.0526	1.013
169.1844	1.013
169.3739	1.013
169.5306	1.013
169.7617	1.013
170.0095	1.013
170.1003	1.013
170.7206	1.013
170.8946	1.013
171.0519	1.013
171.4251	1.013
171.8982	1.013
172.1142	1.013
172.2972	1.013
173.1632	1.013
173.2799	1.013
174.1065	1.013
175.4845	2.025
176.1693	1.013
176.5731	1.013
176.7415	1.013
177.1123	1.013
178.4217	1.013
178.5317	1.013
179.0525	4.151
179.2096	1.013
180.0653	27.340
181.0722	4.175
181.6777	1.013
181.7633	1.013
182.6183	1.013
183.6471	1.013
185.0666	1.013
185.3684	1.013
185.6014	1.013
186.1196	1.013
187.2147	2.025
187.6961	1.013
187.8698	1.013
187.9307	1.013
188.8612	1.013
188.9395	1.013
188.9743	1.013
189.7501	1.013
189.9423	1.013
190.1606	1.013
190.5364	1.013
190.7727	1.013
191.4208	1.013
191.4997	1.013
191.5524	1.013
191.6269	2.025
191.7894	1.013
192.0702	1.013
192.2721	1.013
192.7292	1.013
193.0646	5.063
193.7288	2.025
194.0686	1.013
194.1567	1.013
194.2539	1.013
194.6513	1.013
194.7133	2.025
194.7574	1.013
194.7971	2.025
194.8375	6.076
194.9242	3.885
194.978	2.025
195.0826	4832.000
195.3287	999.100
195.4772	8.101
195.5384	3.279
195.6072	2.017
195.6587	8.101
195.7106	4.051
195.7754	3.038
195.8322	7.089
195.8871	7.476
195.9225	7.141
196.0905	730.200
196.1785	9.812
196.2633	19.160
196.3332	58.070
196.4032	17.830
196.476	27.090
196.6071	23.030
196.6667	17.900
196.7527	16.550
196.7966	20.560
196.8572	11.490
196.9075	7.847
196.9474	14.360
196.9977	22.370
197.0897	83.880
197.1473	22.280
197.1932	14.430
197.24	13.350
197.3033	19.750
197.3565	15.010
197.4357	13.330
197.47	13.360
197.5224	24.050
197.5768	16.200
197.6856	22.140
197.7815	20.870
197.8783	19.780
197.9534	19.890
198.0129	17.090
198.0666	11.930
198.102	9.484
198.156	9.165
198.2707	14.780
198.3589	20.860
198.4638	14.370
198.5208	8.157
198.58	7.444
198.6264	6.337
198.6885	13.410
198.7715	4.051
198.8639	12.680
198.9597	3.038
199.0534	7.089
199.121	5.389
199.171	8.440
199.2112	6.592
199.2445	4.969
199.3192	10.270
199.4012	5.063
199.4854	2.025
199.529	7.019
199.6081	6.138
199.6759	9.411
199.7749	5.331
199.8237	9.114
199.9005	6.627
199.9868	2.025
200.0596	9.219
200.1306	2.025
200.2234	11.140
200.2896	6.261
200.3575	7.089
200.4248	4.051
200.462	2.025
200.5392	7.330
200.603	4.770
200.6633	3.627
200.7164	4.975
200.7723	5.063
200.8507	4.051
200.8835	4.051
200.9826	2.025
201.0322	2.025
201.0761	2.548
201.1548	3.038
201.1985	2.025
201.2831	2.685
201.3642	4.051
201.4191	2.025
201.4587	2.025
201.5309	3.038
201.6392	4.051
201.7063	1.013
201.7692	1.013
201.8996	2.025
201.9402	1.013
201.9942	2.025
202.1114	2.025
202.1892	4.931
202.3006	1.013
202.3681	2.025
202.4719	1.013
202.5168	1.013
202.566	2.025
202.6572	2.025
202.7558	2.025
202.7964	1.013
202.8959	1.013
202.9908	3.038
203.1485	2.025
203.248	1.013
203.2795	2.025
203.3609	2.025
203.5596	3.038
203.6135	2.025
203.7266	3.038
203.7996	2.025
203.876	2.025
203.962	2.025
204.0254	1.013
204.1068	1.013
204.2066	1.013
204.288	1.013
204.3516	1.013
204.4239	1.013
204.5054	1.013
204.6594	2.025
204.7683	1.013
204.8639	2.025
204.9767	1.013
205.0311	1.013
205.1625	2.025
205.2492	1.013
205.3308	1.013
205.5035	1.013
205.9151	3.038
206.0438	2.025
206.2169	2.025
206.4946	1.013
206.5673	1.013
206.6677	1.013
206.9682	1.013
207.1961	2.025
207.5976	1.013
207.707	1.013
208.2827	1.013
208.3514	2.025
208.5481	1.013
208.5935	1.013
208.7627	2.025
208.914	1.013
209.1341	1.013
209.2163	2.025
209.2534	1.013
209.4276	1.013
209.561	2.025
209.6199	1.013
209.6567	1.013
209.9505	1.013
210.2444	1.013
210.5749	1.013
210.7866	1.013
211.56	1.013
211.6523	1.013
211.7259	1.013
211.8457	1.013
212.0486	1.013
212.1409	1.013
212.3439	1.013
212.4733	1.013
212.5564	1.013
212.6859	1.013
213.4629	1.013
213.4994	1.013
213.8607	1.013
214.1206	1.013
214.1667	1.013
214.2412	1.013
214.9834	1.013
215.3459	1.013
215.5225	1.013
215.6993	1.013
216.5468	1.013
217.0413	1.013
218.0792	2.025
218.912	1.013
219.5125	1.013
220.1228	1.013
224.2121	1.013
227.1055	1.013
228.6069	1.013
228.8609	2.025
230.2481	1.013
231.8177	1.013
234.5461	1.013
235.7606	1.013
238.2087	1.013
240.4333	1.013
245.5098	1.013
247.7782	1.013
253.5764	1.013
255.8314	1.013
258.8096	1.013
263.0771	1.013
265.4872	1.013
265.5597	1.013
268.1466	1.013
273.402	1.013
274.1146	1.013
274.8175	1.013
276.6376	1.013
277.3867	1.013
280.1472	1.013
283.5402	1.013
285.4426	1.013
285.7538	1.013
288.7384	1.013
293.0175	1.013
296.051	1.013
297.0323	1.013
303.5107	1.013
306.7867	1.013
307.0641	1.013
338.4364	1.013
339.6265	1.013
344.571	1.013
346.443	1.013
350.097	1.013
351.4019	1.013
351.5338	1.013
353.7234	1.013
358.9615	1.013
365.4108	1.013
365.8123	1.013
368.3241	1.013
370.2843	1.013
373.8151	1.013
379.4542	2.025
382.2663	1.013
382.4645	1.013
382.7488	1.013
386.7138	1.013
391.5635	1.013
394.4023	1.013
397.4025	1.013
398.54	1.013
401.6076	1.013
404.0356	1.013
408.7994	1.013
414.2502	1.013
416.0695	1.013
417.2333	1.013
417.3384	1.013
421.4768	1.013
422.7923	1.013
426.291	1.013
428.9495	1.013
432.8425	1.013
434.8736	1.013
437.0845	1.013
440.1884	1.013
441.7454	2.025
444.2509	1.013
448.1185	1.013
448.1873	1.013
448.9319	2.025
449.2872	1.013
451.4253	1.013
452.3541	1.013
457.6274	1.013
459.3882	1.013
460.0673	1.013
461.729	1.013
462.6559	1.013
464.4701	1.013
466.4214	1.013
467.5997	1.013
470.5908	1.013
470.824	1.013
475.9406	1.013
477.0756	1.013
477.4065	1.013
478.6668	1.013
479.3056	1.013
481.6104	1.013
485.2458	1.013
488.1247	1.013
488.994	1.013
489.7208	1.013
490.0994	1.013
491.4889	1.013
492.7855	1.013
496.3479	1.013
498.0877	1.013
499.6288	1.013
500.196	1.013
501.9943	1.013
502.124	1.013
503.7562	1.013
507.4346	1.013
507.9619	1.013
511.6517	1.013
521.1684	1.013
521.5182	1.013
525.6773	1.013
525.9235	1.013
529.9427	1.013
534.7975	1.013
538.4636	1.013
543.3727	1.013
545.2778	1.013
546.9982	1.013
554.042	1.013
557.0065	2.025
557.3138	1.013
557.749	1.013
561.9303	1.013
563.2354	1.013
564.4558	1.013
564.9363	1.013
565.1461	1.013
565.297	1.013
565.4185	1.013
566.8651	1.013
567.015	1.013
567.5933	1.013
569.6155	1.013
570.4786	1.013
571.2188	1.013
579.0286	1.013
582.0973	1.013
584.1176	1.013
584.3608	1.013
589.2753	1.013
591.3987	1.013
593.8364	1.013
594.8524	1.013
597.8839	1.013

Name: OMEGA-HYDROHYDODECANOATE
PRECURSORMZ: 217.1852	199.1688;181.1577
PRECURSORTYPE: [M+H]+	[M+H-H2O]+;[M+H-2H2O]+
INSTRUMENTTYPE: LC-ESI-QTOF
INSTRUMENT: Waters XeVo ESI-QTOF
SMILES: C(CCCCCC(=O)O)CCCCCO
COLLISIONENERGY: Survey CID 20
RETENTIONTIME: -1
IONMODE: Positive
Links: CAS 505-95-3
Num peaks: 308
53.034	1.013
55.0171	4.051
55.0546	104.900
55.1847	2.025
55.4013	2.025
55.5028	1.013
55.5502	1.013
55.6114	2.025
55.6446	1.013
55.673	2.025
55.7059	3.038
55.7484	1.013
55.7864	1.013
55.9284	1.013
55.9474	2.025
56.0087	1.013
56.0588	2.025
56.1035	1.013
56.1607	2.025
56.3273	1.013
56.3698	1.013
56.7269	1.013
56.818	1.013
56.8775	2.025
56.9324	2.025
56.9469	4.051
57.0337	8.101
57.0715	10.130
57.1527	1.013
57.2486	1.013
57.6757	1.013
58.0759	2.025
58.3081	1.013
58.8948	1.013
59.0016	1.013
59.0491	3.038
59.1434	1.013
59.2603	3.038
59.3137	1.013
59.6313	1.013
59.7515	2.025
59.9693	1.013
62.9894	1.013
65.0629	1.013
67.0541	35.440
67.1646	1.013
67.8	1.013
67.9406	1.013
68.0399	1.013
68.059	3.038
68.1233	1.013
68.2228	1.013
68.3749	1.013
68.6159	1.013
68.7734	1.013
68.9524	1.013
68.9684	1.013
69.0686	49.620
69.1079	2.025
69.3421	1.013
69.5589	1.013
69.659	1.013
69.707	1.013
69.977	1.013
70.0034	1.013
70.0734	6.076
70.508	1.013
70.6782	1.013
70.7155	1.013
70.8219	1.013
70.8913	1.013
70.9925	1.013
71.0193	1.013
71.054	14.180
71.0888	2.025
71.3188	1.013
72.032	1.013
72.312	1.013
73.068	1.013
74.4555	1.013
74.9706	1.013
74.9924	1.013
75.4046	1.013
75.4432	1.013
76.3314	1.013
77.0442	3.038
77.8112	1.013
79.055	11.490
80.063	2.025
80.4659	1.013
80.5511	1.013
81.0703	48.290
81.7267	1.013
81.9501	1.013
81.9844	1.013
82.0361	1.013
82.0795	3.038
82.1853	1.013
82.2203	1.013
82.295	1.013
83.0496	7.243
83.0837	38.270
83.2344	1.013
83.6221	1.013
83.7205	1.013
83.7612	1.013
83.9291	1.013
83.9931	1.013
84.0223	1.013
84.0429	2.025
84.0898	4.051
84.2605	1.013
84.3826	1.013
84.4759	1.013
84.5251	2.025
84.9541	1.013
84.9713	1.013
85.0618	10.130
85.1	1.013
85.511	3.038
85.9498	1.013
86.0498	1.013
86.0847	3.038
86.1497	1.013
87.229	1.013
87.6854	1.013
87.9346	1.013
88.2023	1.013
88.3035	1.013
88.7265	1.013
88.7803	1.013
89.9964	1.013
90.3092	1.013
90.7307	1.013
91.0546	7.607
92.015	1.013
92.0575	1.013
93.0683	28.070
93.2592	1.013
93.6755	1.013
93.8413	1.013
94.0745	2.025
94.2928	2.025
95.084	39.490
95.2021	1.013
95.7348	2.025
95.7781	1.013
96.0201	1.013
96.0899	7.981
96.2003	1.013
96.2314	2.025
96.6484	1.013
96.7665	1.013
96.8163	1.013
96.9285	1.013
96.9723	1.013
96.9913	1.013
97.0627	14.180
97.0994	43.540
97.7725	1.013
97.8352	1.013
97.8602	1.013
97.8918	1.013
97.9684	31.760
98.0607	1.013
98.1202	2.025
98.149	1.013
98.2872	1.013
98.551	1.013
98.9817	11.500
99.0294	1.013
99.0784	3.038
99.2313	1.013
99.5601	1.013
99.6167	1.013
99.6865	1.013
99.933	1.013
99.971	1.013
100.0283	1.013
100.0761	2.025
100.2565	1.013
100.3138	1.013
100.5231	1.013
100.5739	1.013
100.9369	4.051
100.9621	1.013
101.1022	1.013
102.0089	1.013
102.0918	1.013
102.7906	1.013
105.0189	1.013
105.0644	2.025
107.0847	38.550
107.5469	1.013
107.9545	1.013
108.0468	1.013
108.0899	2.025
108.2178	1.013
108.2705	1.013
108.4486	1.013
108.8516	1.013
109.0991	16.200
109.6261	1.013
109.9679	2.025
110.0777	1.013
110.2173	1.013
110.3175	1.013
110.557	1.013
111.0844	12.080
111.1189	3.112
111.244	1.013
111.7726	1.013
111.86	1.013
112.0763	3.038
112.2756	1.013
112.5916	1.013
112.8337	1.013
113.049	1.013
113.4874	1.013
113.967	2.025
115.0178	1.013
119.0479	1.013
120.2191	1.013
120.5459	1.013
121.0261	1.013
121.0978	19.120
121.1343	2.025
121.8711	1.013
122.1099	4.051
122.4523	1.013
122.5226	1.013
122.6837	1.013
123.0785	20.360
123.1169	5.272
123.3794	1.013
124.0732	2.025
124.2821	1.013
124.8972	1.013
125.0977	5.063
125.8765	1.013
126.2107	1.013
126.4527	1.013
127.1019	1.013
127.5308	1.013
127.9605	1.013
129.2033	1.013
129.7298	1.013
129.9823	1.013
130.0689	1.013
135.1145	7.089
135.7809	1.013
136.0866	3.038
137.0982	1.013
137.1353	1.013
138.8172	1.013
138.9667	1.013
139.004	1.013
139.0489	1.013
139.1011	2.025
139.1307	3.038
139.1909	1.013
139.3029	1.013
140.1117	1.013
140.2619	1.013
140.2917	1.013
141.1057	3.038
141.3593	1.013
141.9475	1.013
142.1741	1.013
146.1143	1.013
152.9943	1.013
153.8732	1.013
159.4958	1.013
163.1518	19.900
164.1588	2.025
165.0484	1.013
165.0972	1.013
165.4475	1.013
165.4964	1.013
165.635	1.013
165.9776	1.013
166.072	2.025
166.7703	1.013
166.9831	1.013
167.5321	1.013
168.9373	1.013
169.2669	1.013
173.2717	1.013
180.0844	1.013
180.1354	1.013
181.1508	7.089
182.1734	1.013
183.0554	1.013
183.1153	1.013
183.1841	1.013
183.4327	1.013
185.5499	1.013
205.4764	1.013
206.2307	1.013
215.56	1.013
259.0638	1.013
312.1704	1.013
346.3022	1.013
388.5491	1.013
402.8265	1.013
464.0332	1.013
563.5842	1.013
570.0826	1.013

Name: CORTICOSTERONE
PRECURSORMZ: 347.2217
PRECURSORTYPE: [M+H]+
INSTRUMENTTYPE: LC-ESI-QTOF
INSTRUMENT: Waters XeVo ESI-QTOF
SMILES: C[C@]12CCC(=O)C=C1CC[C@@H]3[C@@H]2[C@H](C[C@]4([C@H]3CC[C@@H]4C(=O)CO)C)O
COLLISIONENERGY: Survey CID 20
RETENTIONTIME: -1
IONMODE: Positive
Links: CAS 50-22-6
Num peaks: 2951
50.441	1.013
50.6121	1.013
50.7969	1.013
50.829	1.013
51.3039	1.013
51.3313	1.013
52.3122	2.025
53.3991	1.013
53.547	1.013
53.7562	1.013
53.8166	1.013
54.4783	1.013
54.5909	1.013
54.8953	1.013
55.0246	4.051
55.053	21.270
55.2198	1.013
55.3046	1.013
55.6919	1.013
55.7721	1.013
56.0561	1.013
56.0992	1.013
56.1134	1.013
56.1323	1.013
56.3652	1.013
56.6366	1.013
57.0291	3.871
57.071	2.025
57.6713	1.013
58.0472	1.013
58.1679	1.013
58.2835	2.025
58.8461	1.013
59.2749	1.013
59.7537	1.013
59.9253	1.013
60.3478	1.013
60.4019	1.013
60.4367	1.013
60.703	1.013
60.9992	1.013
61.0292	10.130
61.202	1.013
61.5348	1.013
61.6442	1.013
61.7341	1.013
61.8683	1.013
62.0079	1.013
62.098	1.013
62.2474	1.013
63.0451	1.013
63.1705	1.013
63.7967	1.013
63.8321	1.013
63.9382	1.013
63.9637	1.013
64.3141	1.013
65.3287	1.013
66.0686	1.013
66.7813	1.013
66.9159	1.013
67.0535	19.240
67.5131	1.013
67.7215	1.013
67.946	1.013
67.9771	1.013
68.2595	1.013
68.3749	1.013
68.9892	1.013
69.0311	3.768
69.071	14.180
69.7964	1.013
69.8601	1.013
69.9874	1.013
70.0326	2.025
70.2314	1.013
70.2791	1.013
70.4068	1.013
70.508	1.013
71.0488	10.130
71.0945	2.025
71.8814	1.013
71.9837	1.013
72.0377	1.013
72.0533	1.013
72.1181	1.013
72.4358	1.013
72.5384	1.013
72.7547	1.013
72.9599	1.013
73.0679	5.901
73.1167	1.013
73.1769	1.013
73.4969	1.013
73.7849	1.013
73.8284	1.013
74.3464	1.013
74.9815	1.013
75.1243	1.013
75.5532	1.013
75.7077	1.013
75.818	1.013
75.9612	1.013
76.0994	1.013
76.5035	1.013
76.9026	1.013
77.0255	1.013
77.0417	1.013
77.761	1.013
78.1611	2.025
78.4101	1.013
78.753	1.013
78.9102	1.013
79.0117	1.013
79.053	25.320
79.5535	1.013
79.6097	1.013
80.0571	1.013
80.2327	1.013
80.3522	1.013
80.3748	1.013
80.6649	1.013
81.0692	100.200
81.1718	1.013
81.4066	1.013
81.4233	1.013
81.6811	1.013
81.721	2.025
81.7783	1.013
81.9387	1.013
81.9676	1.013
82.0421	1.013
82.0706	8.101
82.4846	1.013
82.7782	1.013
82.9109	1.013
83.0497	125.600
83.0858	12.150
83.1938	1.013
83.2144	2.025
83.4655	1.013
83.5061	1.013
83.6509	1.013
83.7868	2.025
83.9815	1.013
84.0468	4.051
84.0917	1.013
84.1557	1.013
84.1734	1.013
84.2578	2.025
84.3185	1.013
84.3652	2.025
84.409	2.025
84.5048	1.013
84.5224	1.013
84.5749	1.013
84.668	1.013
84.7088	1.013
84.732	1.013
84.8195	1.013
84.9191	1.013
84.9774	1.013
85.0608	28.350
85.1	1.013
85.1644	1.013
85.1877	1.013
85.2346	2.025
85.2901	2.025
85.322	1.013
85.4455	1.013
85.6618	1.013
85.9082	2.025
86.0676	4.051
86.1056	2.025
86.1435	1.013
86.238	1.013
86.2786	2.025
86.3731	1.013
86.4027	1.013
86.5672	1.013
86.9393	1.013
87.0442	65.540
87.1223	1.013
87.2113	2.025
87.4303	1.013
87.4838	1.013
87.7385	1.013
87.7801	1.013
87.8159	2.025
88.0029	2.025
88.0413	1.013
88.1368	1.013
88.3687	1.013
88.3985	1.013
88.4881	2.025
88.8994	1.013
88.9295	1.013
89.0493	1.013
89.3842	1.013
89.4201	1.013
89.6179	1.013
89.738	1.013
89.7562	1.013
90.2368	2.025
90.2669	1.013
90.6224	1.013
90.6407	1.013
90.9546	1.013
91.055	17.400
91.1966	1.013
91.3294	1.013
91.5293	1.013
91.5776	1.013
91.7538	1.013
91.8631	1.013
92.0452	1.013
92.0635	2.025
93.0689	113.900
93.2514	4.051
93.2894	1.013
93.608	1.013
93.7675	1.013
93.878	1.013
93.9206	1.013
94.0733	7.089
94.1111	1.013
94.1544	1.013
94.2222	1.013
94.3017	1.013
94.3942	1.013
94.4621	1.013
94.6221	1.013
94.6778	1.013
94.7024	1.013
94.7394	1.013
94.9057	2.025
94.9677	1.013
95.0455	8.931
95.0847	117.000
95.2145	1.013
95.2484	2.025
95.2732	2.025
95.4325	3.038
95.5241	1.013
95.6295	1.013
95.7534	1.013
95.7934	2.025
95.9105	3.038
95.964	1.013
96.0513	1.013
96.0894	9.664
96.1753	2.025
96.3743	1.013
96.3932	1.013
96.424	1.013
96.4571	3.038
96.5235	1.013
96.5576	2.025
96.6233	2.025
96.6484	1.013
96.7188	3.038
96.7572	2.025
96.935	1.013
97.0648	456.900
97.1285	1.013
97.166	1.013
97.2399	17.080
97.3222	1.013
97.4033	1.013
97.4473	1.013
97.4845	2.025
97.5567	2.025
97.622	5.063
97.7666	2.025
97.8274	3.038
97.9169	3.038
97.973	1.013
98	3.038
98.0267	2.025
98.0675	32.430
98.13	1.013
98.1605	2.885
98.2083	2.025
98.2496	1.013
98.3288	3.038
98.356	1.013
98.3937	1.013
98.4483	3.038
98.507	2.025
98.5444	1.013
98.5825	2.025
98.6141	3.526
98.6557	7.259
98.702	1.013
98.7337	1.013
98.7523	1.013
98.7841	1.013
98.853	1.013
98.8974	1.013
98.9412	3.038
98.9664	1.013
99.0437	37.450
99.0804	9.324
99.1122	1.781
99.1558	2.025
99.1873	1.013
99.2187	1.013
99.2855	2.025
99.3074	1.013
99.3454	1.013
99.3796	2.025
99.4211	1.013
99.5001	2.025
99.544	2.025
99.6137	2.025
99.6612	1.013
99.7497	1.013
99.8763	1.013
100.0481	3.038
100.174	1.013
100.2248	2.025
100.3329	2.025
100.3773	1.013
100.4061	2.025
100.4464	1.798
100.4723	2.025
100.5739	1.013
100.5993	1.013
100.6314	2.025
100.6822	1.013
100.7331	1.013
100.8027	1.013
100.9016	2.025
100.9205	2.025
101.0583	224.400
101.1338	1.013
101.1786	1.013
101.1975	1.013
101.241	6.051
101.2995	1.013
101.4686	2.025
101.4973	2.025
101.5742	1.013
101.6186	1.013
101.6444	2.025
101.708	1.013
101.7275	1.013
101.7914	1.013
101.9321	1.013
101.9702	2.025
101.9961	1.013
102.0594	8.298
102.1369	1.013
102.1754	1.013
102.201	1.013
102.2585	3.038
102.2968	1.013
102.3609	2.025
102.4094	2.025
102.4407	2.025
102.4892	1.013
102.5148	2.025
102.5685	3.038
102.6175	1.013
102.6496	2.025
102.7331	1.013
102.8102	1.013
102.842	1.013
102.9902	1.013
103.035	1.013
103.1637	1.013
103.1894	1.013
103.228	1.013
103.2667	1.013
103.3249	1.013
103.3765	1.013
103.4278	1.013
103.4535	1.013
103.5116	1.013
103.5564	1.013
103.5822	1.013
103.6596	1.013
103.7051	1.013
103.8405	1.013
103.9373	2.025
103.9826	1.013
104.0023	1.013
104.1766	1.013
104.4226	1.013
104.5584	1.013
104.591	1.013
104.6425	1.013
104.6751	1.013
104.7887	2.025
104.928	1.013
104.9607	2.025
105.0059	1.013
105.07	101.900
105.1094	2.073
105.2397	2.025
105.3329	3.038
105.5193	2.025
105.7473	1.013
105.7932	1.013
105.8321	1.013
105.943	1.013
106.0245	2.025
106.0767	2.532
106.196	3.038
106.256	1.013
106.3281	1.013
106.3998	1.013
106.426	1.013
106.4459	1.013
106.4979	1.013
106.5307	1.013
106.714	3.038
106.7596	1.013
106.8411	2.025
106.92	2.025
107.0489	26.050
107.0855	157.900
107.1463	1.013
107.2119	1.013
107.2603	5.063
107.2839	2.025
107.3891	1.013
107.4548	1.013
107.6384	1.013
107.8557	2.025
107.9081	1.013
108.0388	1.519
108.0909	17.220
108.1518	2.025
108.2246	1.013
108.2642	1.013
108.2906	1.013
108.3101	1.013
108.3825	1.013
108.4435	4.051
108.5014	1.013
108.5675	1.013
108.6106	3.038
108.6865	1.013
108.713	2.025
108.7722	1.013
108.8183	1.013
108.8447	1.013
108.8813	2.025
108.9502	4.051
108.9838	2.025
109.065	174.400
109.0975	38.960
109.2418	6.076
109.285	2.025
109.3412	2.025
109.368	2.025
109.4672	1.013
109.5336	2.025
109.686	2.025
109.7159	2.025
109.7722	1.013
109.7988	1.013
109.8653	1.013
109.9251	2.025
109.9547	2.025
110.0048	1.013
110.0358	3.038
110.0686	18.230
110.1048	2.010
110.1576	2.025
110.1843	1.013
110.204	1.013
110.3042	1.013
110.3441	1.013
110.4064	4.051
110.4469	3.038
110.5171	2.025
110.5704	1.013
110.607	3.038
110.6638	2.025
110.7503	1.013
110.787	3.038
110.8572	1.013
110.8902	1.876
110.9139	2.175
110.9903	1.013
111.0378	8.393
111.0774	30.570
111.1407	2.025
111.1776	1.013
111.1974	1.013
111.2455	2.937
111.2808	2.025
111.3447	1.013
111.3645	1.013
111.4047	1.013
111.4915	1.013
111.5183	3.038
111.5686	3.038
111.6322	2.025
111.6991	1.013
111.813	2.025
111.9402	1.013
111.9874	1.013
112.0073	1.013
112.2086	2.025
112.2622	1.013
112.3229	1.013
112.3698	1.013
112.4773	1.013
112.5577	2.025
112.6317	1.013
112.6854	1.013
112.864	2.025
112.9951	1.013
113.0156	1.013
113.0589	3.438
113.0986	1.413
113.1231	1.013
113.1974	1.013
113.2851	1.013
113.3592	1.013
113.4198	2.025
113.4468	1.013
113.6562	1.013
113.6899	2.025
113.7374	1.013
113.8859	1.013
113.9195	1.013
114.2174	1.013
114.238	1.013
114.3667	1.013
114.509	1.013
114.7124	1.013
114.7532	1.013
115.1268	1.013
115.494	2.025
115.9508	1.013
116.1895	1.013
116.4188	2.025
116.6613	1.013
117.024	2.025
117.0671	18.780
117.1614	1.013
117.2506	1.013
117.3056	1.013
117.4356	1.013
117.9306	1.013
118.4334	1.013
118.4749	1.013
118.5369	2.025
118.6819	1.013
118.8891	1.013
119.0439	1.865
119.0851	139.600
119.2969	2.025
119.3385	1.013
119.4284	1.013
119.5046	1.013
119.6641	1.013
119.8026	1.013
119.8582	1.013
119.9762	1.013
120.0037	2.025
120.0897	11.660
120.1567	1.013
120.1913	1.013
120.2331	1.013
120.355	2.025
120.3895	2.834
120.4345	1.013
120.5737	2.025
120.6293	1.013
120.6572	1.013
120.6953	2.025
120.8172	2.025
120.9039	2.025
120.9288	1.013
120.9635	1.013
121.0649	1161.000
121.1659	1.013
121.2026	3.038
121.2575	104.500
121.3395	2.626
121.3821	1.013
121.5147	3.038
121.5776	1.013
121.6192	1.013
121.7119	6.076
121.736	5.063
121.8155	2.373
121.8431	2.025
121.8938	6.565
121.939	3.038
121.9855	4.051
122.0182	5.890
122.066	107.400
122.1303	8.171
122.1778	7.332
122.1995	5.311
122.242	5.063
122.2681	3.038
122.2935	3.038
122.3474	5.063
122.4028	7.089
122.4428	4.051
122.4764	7.089
122.5293	5.681
122.5532	4.552
122.5922	8.596
122.629	5.270
122.6804	2.025
122.7292	2.025
122.7561	3.038
122.7918	5.633
122.835	6.076
122.9122	8.101
122.9578	1.912
122.9927	5.812
123.081	433.800
123.1648	3.066
123.2179	1.982
123.2714	22.820
123.3574	4.051
123.3892	5.432
123.4217	2.025
123.4783	3.038
123.5133	1.013
123.5661	3.038
123.6191	2.025
123.6682	1.013
123.7072	4.163
123.749	2.540
123.7745	3.536
123.8164	1.013
123.8938	2.025
123.938	3.038
124.0047	8.995
124.0837	32.020
124.1251	5.721
124.1622	4.051
124.1948	4.761
124.2611	4.051
124.3014	3.038
124.3551	6.482
124.4301	7.480
124.5011	2.025
124.5229	3.538
124.5574	2.025
124.5789	2.025
124.6291	2.659
124.6636	1.013
124.7374	7.089
124.7808	2.025
124.8334	3.038
124.8746	3.038
124.8972	2.025
124.9327	2.025
125.0068	4.346
125.0504	2.372
125.0965	10.840
125.1383	1.013
125.1931	4.503
125.227	3.038
125.2621	2.025
125.3401	2.025
125.3792	1.013
125.4288	1.013
125.4715	1.013
125.5142	2.025
125.5851	6.076
125.6662	2.025
125.7479	4.051
125.8147	3.038
125.8371	2.025
125.9046	1.013
125.9585	2.025
125.9971	2.025
126.1451	3.038
126.206	5.063
126.2605	1.013
126.3245	2.025
126.4029	1.013
126.4598	2.025
126.5168	2.025
126.5666	1.013
126.6095	1.013
126.6451	1.013
126.7452	1.013
126.7734	1.013
126.8364	3.038
126.8948	1.013
126.92	2.025
127.0163	1.013
127.1181	2.364
127.1875	1.013
127.2518	1.013
127.3163	2.025
127.3734	1.013
127.4591	2.025
127.5021	1.013
127.6383	1.013
127.699	2.025
127.774	2.025
127.9854	2.025
128.1899	2.025
128.2114	1.013
128.696	2.025
128.7789	1.013
128.8148	1.013
128.8795	3.038
129.0162	2.025
129.0638	7.962
129.2897	1.013
129.3619	1.013
129.4627	1.013
129.6285	1.013
129.9028	1.013
130.1136	1.576
130.2496	1.013
130.3727	1.013
130.5681	1.013
130.5971	2.025
130.8867	1.013
130.9665	1.013
131.0848	100.600
131.1322	1.222
131.1914	1.013
131.2887	5.063
131.38	1.013
131.4454	1.013
131.7579	2.025
131.78	1.013
131.9035	1.013
132.0881	8.638
132.151	1.013
132.2751	1.013
132.351	2.025
132.4023	3.038
132.4573	1.013
132.5519	1.013
132.6213	2.025
132.8658	1.013
132.9755	1.013
133.012	3.657
133.1015	175.200
133.2788	2.025
133.308	4.051
133.3482	1.013
133.436	1.013
133.6301	2.025
133.6886	3.038
133.7363	1.013
133.7654	2.025
133.9123	1.013
134.0444	1.013
134.1071	19.450
134.1909	3.038
134.3636	3.038
134.4812	2.025
134.5067	1.013
134.5729	1.013
134.6905	1.013
134.8524	3.038
134.8817	1.013
134.9333	2.025
135.0804	322.600
135.1165	76.460
135.1741	2.380
135.2204	2.025
135.2854	6.076
135.3383	2.025
135.3605	1.013
135.4416	2.025
135.5227	1.013
135.5595	1.013
135.6555	1.013
135.7366	2.025
135.7699	3.038
135.8549	1.013
135.8831	3.440
135.9171	2.025
135.9754	5.063
136.0834	41.730
136.1187	10.090
136.1906	2.025
136.2539	1.013
136.3056	5.063
136.3944	1.013
136.4351	2.025
136.4907	2.025
136.5277	1.013
136.5795	1.013
136.624	1.013
136.6573	2.025
136.698	1.013
136.8179	5.063
136.8866	3.917
136.9225	3.038
137.0127	2.025
137.0944	77.820
137.217	1.013
137.2617	2.025
137.3082	6.076
137.3656	1.013
137.4398	1.013
137.4769	2.025
137.503	2.025
137.566	1.013
137.67	2.025
137.7404	3.038
137.799	3.038
137.8858	1.013
137.9176	3.038
137.9825	2.025
138.0123	1.013
138.1069	8.685
138.1836	2.025
138.2879	2.025
138.3118	3.038
138.3791	3.038
138.4367	1.013
138.4966	1.013
138.5636	2.025
138.6013	3.038
138.6751	3.038
138.7316	2.025
138.8172	1.013
138.8472	1.013
138.8919	2.025
138.9293	2.025
138.9779	2.025
139.0523	1.849
139.116	6.245
139.2206	1.013
139.2806	1.013
139.3179	1.013
139.5198	1.013
139.5574	1.013
139.5872	1.013
139.6246	1.013
139.6958	2.025
139.7521	1.013
139.857	1.013
139.9017	1.013
139.9392	1.013
140.2017	1.013
140.3669	1.013
140.3894	1.013
140.5847	1.013
140.6972	1.013
140.78	1.013
140.9004	1.013
141.0698	3.310
141.2541	2.025
141.3821	1.013
141.6688	2.025
141.7303	3.038
141.8872	2.025
141.9552	1.013
141.9896	2.025
142.1233	1.696
142.1967	1.013
142.2951	1.013
142.6202	1.013
142.8245	1.013
142.9231	1.013
142.9615	2.025
142.9913	1.013
143.0849	79.980
143.3475	1.013
143.5675	1.013
143.689	1.013
143.7574	1.013
143.8029	1.013
143.8296	2.025
144.0387	2.025
144.0891	4.285
144.1375	1.013
144.3887	1.013
144.4952	2.025
144.6209	2.025
144.7012	2.025
144.7466	1.013
144.842	2.025
144.9101	2.025
145.1021	163.300
145.3265	3.638
145.4411	1.013
145.464	1.013
145.51	1.013
145.5748	2.025
145.6705	1.013
145.7623	1.013
145.8005	1.013
145.8541	1.013
145.8999	1.013
145.9535	2.025
146.0147	2.025
146.093	3.363
146.1425	3.038
146.2136	5.289
146.3178	2.025
146.4168	2.025
146.4975	2.025
146.5701	2.025
146.6202	1.013
146.6893	1.013
146.7277	1.013
146.7852	2.025
146.9041	1.013
146.9619	2.025
147.0793	108.300
147.1144	149.300
147.1961	1.013
147.2577	2.025
147.2918	2.025
147.3398	3.038
147.4103	4.051
147.4785	2.386
147.5038	2.025
147.5809	2.025
147.6115	1.013
147.6582	3.038
147.7656	1.013
147.9658	1.013
148.0198	1.013
148.0822	20.480
148.1186	25.730
148.1889	5.063
148.2357	1.013
148.2743	1.013
148.3051	1.013
148.336	1.013
148.4093	2.025
148.4636	2.025
148.5136	2.025
148.5675	1.013
148.5985	1.013
148.6492	2.025
148.6988	1.013
148.7608	1.013
148.811	4.051
148.8767	1.013
148.917	2.765
148.954	2.025
149.0176	2.529
149.0958	87.620
149.1331	49.690
149.2402	1.013
149.3249	7.089
149.3795	2.025
149.4571	1.013
149.5346	2.025
149.5654	1.013
149.6081	2.025
149.6429	1.013
149.6663	1.013
149.7051	1.013
149.7675	3.038
149.8286	3.038
149.9106	1.495
149.9524	4.051
150.0075	1.013
150.0464	1.312
150.1047	7.194
150.1898	2.025
150.2481	2.025
150.3023	2.025
150.3435	4.051
150.5435	1.013
150.5806	3.038
150.645	2.025
150.8428	2.025
150.8934	1.013
150.9869	1.013
151.0258	1.013
151.1126	21.180
151.314	1.013
151.4542	1.013
151.6961	1.013
151.7429	1.013
151.7975	1.013
151.985	1.013
152.2115	1.013
152.2741	1.013
152.3523	1.013
152.4774	1.013
152.5245	1.013
152.5748	3.038
152.6418	1.013
152.6966	1.013
152.7279	1.013
152.8453	1.013
152.9003	1.956
152.9316	2.025
153.0177	1.013
153.045	2.025
153.0932	38.630
153.3471	1.013
153.4413	1.013
153.4727	2.025
153.638	2.025
153.7359	2.025
153.8575	2.025
153.9148	3.038
153.9439	1.013
154.0147	1.013
154.0999	2.171
154.1799	1.013
154.2113	1.013
154.2979	1.013
154.3648	2.025
154.4003	1.013
154.4791	2.025
154.6245	2.025
154.9282	1.013
154.9833	1.013
155.0228	2.025
155.0892	32.990
155.2832	1.013
155.7415	1.013
155.868	1.013
155.9234	1.013
155.9904	2.025
156.2163	1.013
156.2638	1.013
156.4142	1.013
156.6045	1.013
156.7076	1.013
156.7552	1.013
157.1011	169.400
157.1759	1.013
157.2553	1.013
157.3587	1.013
157.5018	1.013
157.7008	3.038
157.7802	1.013
157.8439	1.013
157.9951	1.013
158.027	1.013
158.1085	14.400
158.1863	2.025
158.2262	1.013
158.2863	2.025
158.3697	2.025
158.4396	3.038
158.4811	2.025
158.5291	2.025
158.5892	2.025
158.6329	1.013
158.7248	3.038
158.7606	1.013
158.8005	1.013
158.8566	2.025
158.9283	1.013
159.1154	205.800
159.2399	2.025
159.3328	5.063
159.3702	3.038
159.4079	1.013
159.4639	1.013
159.4879	1.013
159.5919	1.013
159.6924	2.025
159.8161	1.013
159.8562	1.013
159.9362	1.013
160.0244	1.013
160.0521	2.025
160.1243	18.580
160.1767	2.025
160.2569	2.025
160.3131	3.038
160.3853	1.013
160.4334	3.038
160.4793	3.038
160.5458	2.025
160.5991	3.038
160.6579	3.038
160.7144	1.013
160.7626	1.013
160.8349	1.013
160.8832	1.013
160.9555	1.013
160.9996	3.038
161.101	160.500
161.1962	2.666
161.3264	4.051
161.3898	2.025
161.4221	1.013
161.4623	1.013
161.5186	3.038
161.5831	2.025
161.6717	1.013
161.7281	1.013
161.8849	2.025
161.9215	1.013
161.9698	1.013
162.0183	1.013
162.0968	10.940
162.1414	4.777
162.2845	2.025
162.3168	1.013
162.4258	3.038
162.4701	2.025
162.5082	3.038
162.5496	4.098
162.6316	3.038
162.6883	1.013
162.7206	1.013
162.7691	1.013
162.8545	2.025
162.9147	1.013
162.9389	1.013
163.0154	2.025
163.1123	244.200
163.2545	1.013
163.3313	6.076
163.3939	3.038
163.4731	1.013
163.5299	1.013
163.578	3.038
163.6352	1.013
163.7	1.013
163.7324	1.013
163.826	3.038
163.911	2.025
163.97	3.038
164.0163	1.013
164.12	26.210
164.1864	3.038
164.2477	2.025
164.3173	4.051
164.3975	1.937
164.4346	4.051
164.5279	1.013
164.5958	5.063
164.6495	2.659
164.6924	2.806
164.7352	2.025
164.8653	2.025
164.9752	1.013
165.0284	1.683
165.1152	5.828
165.195	2.025
165.268	2.947
165.3024	4.051
165.3823	1.013
165.4541	4.051
165.4964	1.013
165.5697	1.013
165.6269	1.013
165.8063	1.013
165.8494	3.038
165.9042	1.013
165.9695	1.013
166.1759	2.590
166.2544	3.544
166.2997	2.025
166.4064	2.025
166.4514	1.013
166.5414	1.013
166.6274	2.025
166.7703	1.013
166.8195	1.013
166.889	2.025
167.2617	1.013
167.4338	1.013
167.5322	2.025
167.6142	1.013
167.8521	1.013
168.2464	2.025
168.3285	1.013
168.456	2.025
168.5298	2.025
168.7481	1.013
168.9045	1.013
169.0239	2.025
169.0993	126.800
169.1868	1.878
169.3354	5.063
169.5616	3.038
169.6628	1.013
169.7454	3.038
169.8445	1.013
169.9106	1.013
170.1031	8.031
170.2328	2.025
170.2658	2.034
170.2906	1.013
170.3693	2.025
170.4809	1.013
170.5388	1.013
170.6582	2.025
170.7454	2.025
170.7788	1.013
170.8285	3.038
170.9858	1.013
171.115	296.200
171.1764	1.013
171.2178	1.013
171.2511	1.013
171.3415	5.164
171.4045	2.025
171.6908	1.013
171.7655	1.013
171.8486	1.013
171.9316	2.025
171.958	2.475
172.0027	2.025
172.1196	35.230
172.1976	1.013
172.3262	2.025
172.4057	2.025
172.5053	2.025
172.5594	2.025
172.6219	1.013
172.7135	1.013
172.7551	1.013
172.8139	3.038
172.8717	1.081
172.9269	3.682
173.0945	110.100
173.1318	86.210
173.2049	4.051
173.3218	5.063
173.3802	3.038
173.4529	3.038
173.5346	2.025
173.5784	3.038
173.6226	2.025
173.6723	2.025
173.7033	2.394
173.7307	2.025
173.8323	2.740
173.8728	1.013
173.9562	1.062
174.0236	5.063
174.0978	12.560
174.1373	17.370
174.2336	2.481
174.268	3.038
174.3576	2.025
174.3911	1.013
174.4766	3.038
174.5878	2.025
174.659	4.051
174.8432	3.038
174.9226	3.038
174.9838	3.284
175.1112	320.300
175.2162	3.038
175.296	1.013
175.3406	5.162
175.4294	2.867
175.4619	3.038
175.5147	3.038
175.5752	3.038
175.6331	2.754
175.6736	1.013
175.7737	2.025
175.8248	2.025
175.9172	1.013
175.9471	2.025
176.053	5.463
176.1181	52.630
176.2073	2.025
176.2964	2.025
176.3376	1.013
176.4057	5.063
176.4515	2.025
176.4886	2.025
176.5463	3.909
176.6153	1.013
176.7057	3.038
176.7593	2.025
176.8093	3.038
176.885	1.013
176.9777	2.025
177.0349	3.825
177.1261	118.700
177.1885	1.013
177.2587	5.063
177.3402	1.013
177.3741	1.013
177.4159	2.025
177.5006	1.013
177.5344	1.013
177.5961	3.038
177.661	1.013
177.737	1.013
177.7961	1.013
177.8384	1.013
177.9144	1.013
177.9615	2.025
178.1267	4.341
178.2018	2.775
178.2696	1.013
178.3203	1.013
178.4473	1.013
178.515	1.013
178.5656	1.013
178.6082	1.013
178.6842	1.013
178.7182	1.013
178.769	1.013
178.8961	2.025
178.9469	2.025
178.988	4.051
179.1013	21.280
179.2102	2.025
179.2692	3.038
179.3624	3.038
179.4097	5.955
179.4513	2.025
179.4983	1.013
179.5407	1.013
179.6001	1.013
179.6679	3.038
179.7213	2.407
179.7615	2.025
179.8125	1.013
179.9107	2.025
179.94	1.013
179.9995	1.013
180.3098	2.025
180.4247	2.025
180.4905	3.038
180.6801	1.013
180.7253	3.038
180.7824	1.013
180.8884	2.025
180.9357	1.013
181.0968	36.430
181.4133	1.013
181.4901	1.013
181.5451	2.025
181.7035	1.013
181.7377	2.025
181.9341	1.013
181.9858	2.025
182.0196	1.013
182.2762	1.013
182.3104	1.013
182.3703	1.013
182.5973	2.025
182.6699	1.013
182.9631	3.038
183.0696	5.093
183.1157	103.200
183.3555	2.197
183.3812	1.013
183.4929	1.013
183.596	1.013
183.8448	1.013
183.9694	2.025
184.0168	1.013
184.0703	1.078
184.3866	1.013
184.4381	1.013
184.5241	1.013
184.6658	2.025
184.7009	2.025
184.7654	1.013
184.9071	2.025
184.9626	5.143
185.024	2.025
185.124	144.400
185.1961	2.025
185.2823	2.025
185.3211	2.025
185.3725	6.076
185.4203	1.013
185.5499	1.013
185.611	2.025
185.7224	2.025
185.7742	1.013
185.9038	1.013
185.9776	2.025
186.0075	1.013
186.1327	16.350
186.1835	1.770
186.2862	3.038
186.351	3.038
186.4184	2.025
186.4564	4.886
186.5263	2.025
186.6301	1.013
186.6906	1.013
186.7491	5.793
186.8121	1.013
186.8726	1.013
186.9333	1.013
186.9853	1.013
187.1118	181.000
187.1443	77.800
187.2271	2.025
187.284	2.025
187.369	15.610
187.4573	2.025
187.4967	1.013
187.5529	2.025
187.6097	1.013
187.6615	1.013
187.6963	1.013
187.7396	1.013
187.7831	2.025
187.8447	2.025
187.9309	1.013
188.0609	1.013
188.1213	24.670
188.2609	2.025
188.3039	3.038
188.3522	2.025
188.41	4.051
188.4775	2.025
188.5262	2.025
188.5741	1.013
188.6262	2.025
188.6974	4.051
188.7654	1.013
188.8614	1.013
188.9807	2.933
189.0709	3.491
189.1258	175.100
189.1983	3.670
189.2516	1.698
189.361	5.063
189.4545	2.025
189.5323	1.013
189.6282	1.013
189.6719	2.025
189.7548	2.025
189.8222	4.027
189.8901	1.013
189.9513	2.025
190.1298	14.990
190.2385	3.038
190.283	1.013
190.3269	1.013
190.3879	1.013
190.4319	1.013
190.4673	2.025
190.5154	2.025
190.5892	2.025
190.6463	3.502
190.6966	3.038
190.7643	1.013
190.7953	2.025
190.8428	1.013
190.9067	4.729
190.9741	1.013
191.0093	1.013
191.1474	6.872
191.1932	1.013
191.3819	2.025
191.4674	2.911
191.5789	1.013
191.728	1.013
191.7724	3.038
191.8508	1.013
191.9209	1.013
191.9825	2.025
192.0441	2.025
192.2809	2.025
192.3206	2.025
192.448	1.013
192.5007	1.013
192.5447	1.013
192.5793	2.025
192.6326	1.013
192.7641	3.038
192.835	1.013
192.9317	1.013
192.9759	1.013
193.1208	159.300
193.2133	1.013
193.2662	1.013
193.3018	2.025
193.3704	7.077
193.4115	2.053
193.522	1.013
193.654	1.013
193.7511	1.013
193.7862	1.013
193.9275	2.025
194.1216	8.834
194.2717	1.013
194.5146	4.051
194.6606	3.038
194.8723	3.038
194.9348	3.038
194.9828	2.025
195.0319	1.013
195.1178	91.430
195.253	1.013
195.3065	3.038
195.3662	3.838
195.4304	2.025
195.5277	1.013
195.5942	2.025
195.6653	3.038
195.776	1.013
195.8379	1.013
195.9532	1.013
196.0508	1.013
196.1266	9.852
196.2551	1.013
196.3881	1.013
196.4324	1.013
196.4995	2.025
196.5611	2.025
196.6543	1.013
196.7002	4.051
196.77	1.013
196.8234	1.013
196.9034	1.013
196.9476	1.013
197.0276	1.013
197.1305	161.800
197.2325	1.013
197.3212	1.013
197.386	3.038
197.4598	2.025
197.5141	2.436
197.6331	1.013
197.7043	1.013
197.9004	1.013
197.952	2.660
198.0076	2.665
198.0564	2.025
198.1362	23.610
198.2481	1.013
198.2863	3.038
198.3284	1.013
198.5515	2.025
198.5872	1.013
198.7392	1.013
198.8105	1.013
198.8795	3.038
198.9625	2.025
199.1096	63.070
199.1495	40.420
199.2485	1.013
199.311	1.013
199.3648	1.013
199.4136	2.025
199.49	1.013
199.5393	2.025
199.6017	2.025
199.9557	1.013
200.0719	1.013
200.1278	3.706
200.2606	1.013
200.3295	4.051
200.4306	1.013
200.5245	4.051
200.5875	2.025
200.6551	1.013
200.7	2.025
200.7403	2.025
200.7987	1.013
200.8882	4.235
200.9603	1.013
201.0051	2.025
201.0547	2.025
201.1324	124.000
201.2574	2.025
201.3288	1.013
201.4042	5.669
201.4995	1.013
201.6207	2.025
201.6705	2.025
201.7519	3.038
201.8325	1.013
201.8685	1.013
201.9315	2.025
201.9765	1.013
202.0347	2.025
202.131	6.933
202.1883	2.161
202.2475	2.025
202.3369	1.013
202.3909	1.013
202.4542	1.013
202.5171	3.038
202.5893	1.013
202.6274	3.433
202.6617	4.669
202.8058	1.013
202.9658	3.038
203.1281	75.910
203.2031	1.013
203.266	1.013
203.3656	1.013
203.402	2.025
203.5011	1.013
203.6636	4.051
203.7927	4.051
203.8536	1.013
203.8991	1.013
203.9622	1.013
204.1433	1.970
204.2603	2.025
204.3219	3.038
204.4062	1.013
204.5558	2.025
204.6871	1.013
204.755	2.025
204.8045	1.013
204.8664	2.416
204.9589	1.013
205.0406	2.025
205.1185	18.830
205.2766	1.013
205.3582	1.013
205.4308	1.013
205.4764	1.013
205.5581	1.013
205.6398	1.013
205.7123	1.013
205.8931	4.051
205.9355	2.025
206.0033	1.013
206.078	1.417
206.3165	5.063
206.4036	1.013
206.4676	1.013
206.5994	2.025
206.6406	2.025
206.6767	1.013
206.8454	2.025
206.9317	1.013
206.9933	3.038
207.1256	44.550
207.2055	1.013
207.2695	1.013
207.3877	1.013
207.5064	1.013
207.6252	1.013
207.7925	3.038
207.9542	1.013
208.1373	7.630
208.2099	1.013
208.3013	2.025
208.3563	2.025
208.3925	1.013
208.5599	3.038
208.7402	1.013
208.8255	3.038
208.9342	3.017
208.9877	1.013
209.1335	105.000
209.2034	2.025
209.3451	2.025
209.4091	2.025
209.4867	2.025
209.6241	2.025
209.7213	1.013
209.767	1.013
209.877	2.025
210.1343	18.200
210.2171	1.013
210.3179	1.013
210.3914	2.025
210.465	1.013
210.5663	1.013
210.6302	1.013
210.6993	3.038
210.7961	1.013
211.0214	2.025
211.1384	224.400
211.3912	5.130
211.4496	3.038
211.5206	3.038
211.6225	1.699
211.6614	3.038
211.7261	1.013
211.8183	1.013
211.8821	2.025
211.9289	1.013
211.9841	2.025
212.1434	41.860
212.353	2.025
212.4182	1.013
212.483	7.031
212.5992	5.063
212.6953	2.025
212.7924	3.038
212.8569	2.025
212.9265	1.013
212.9812	3.038
213.1364	99.750
213.2778	1.013
213.3314	6.076
213.4443	2.025
213.5179	2.594
213.5733	2.025
213.6659	2.025
213.829	2.025
213.8703	1.013
213.963	1.013
214.1261	5.769
214.2104	5.448
214.5652	2.025
214.603	1.013
214.6539	2.025
214.7039	2.743
214.7746	2.025
214.9186	1.013
214.9743	1.013
215.021	1.013
215.1422	90.300
215.2206	2.025
215.3044	2.122
215.3372	3.038
215.3957	4.609
215.467	1.013
215.5044	1.013
215.6174	4.051
215.6995	1.013
215.7646	2.025
215.8749	4.051
215.9789	4.051
216.0434	2.025
216.1477	11.710
216.3421	1.013
216.4382	4.051
216.5752	2.025
216.6217	1.013
216.7011	2.025
216.7526	1.013
216.8385	2.444
216.9018	1.013
217.0105	3.846
217.0742	2.025
217.1284	13.020
217.2003	1.013
217.2657	1.013
217.345	3.038
217.4057	2.025
217.4847	2.025
217.5926	1.013
217.658	1.013
217.7045	2.025
217.7891	1.013
217.8965	2.025
217.9511	1.410
218.2474	1.013
218.341	1.013
218.3935	2.025
218.5189	1.013
218.8096	1.013
218.8564	2.025
218.9499	1.013
219.0108	2.025
219.1289	49.480
219.2634	2.025
219.3347	1.013
219.4094	2.025
219.4752	1.013
219.8411	1.013
219.9686	2.025
220.1203	6.278
220.3023	1.013
220.3866	1.013
220.4519	2.025
220.8009	1.013
220.8669	1.013
221.0834	1.013
221.1314	33.750
221.3094	2.025
221.385	2.025
221.4225	1.013
221.5168	1.013
221.8466	1.013
221.9507	1.013
222.3565	1.013
222.4324	1.013
222.4891	1.013
222.697	2.025
223.1473	162.200
223.3121	3.038
223.379	2.025
223.4441	4.051
223.5399	2.025
223.6059	2.025
223.7197	1.013
223.9001	3.038
223.9897	3.038
224.146	17.600
224.3266	1.013
224.4117	1.013
224.4544	2.025
224.5351	1.013
224.668	1.013
224.7345	2.025
224.8323	3.038
224.8852	1.672
224.9431	1.013
225.048	1.013
225.1504	105.900
225.2477	1.013
225.3809	4.051
225.5711	2.025
225.6433	3.619
225.8421	2.025
225.9233	1.013
225.99	1.013
226.0281	1.013
226.2472	1.013
226.3521	1.013
226.4111	4.051
226.5523	1.013
226.6575	1.013
226.7171	3.038
226.8022	4.051
226.909	2.025
226.9721	2.025
227.0676	2.025
227.1436	99.470
227.2968	1.013
227.4199	6.904
227.6501	1.013
227.7171	1.013
227.7746	2.025
227.8176	2.025
227.9705	4.051
228.061	2.025
228.1565	18.020
228.2018	2.448
228.4586	2.025
228.531	1.013
228.6267	1.013
228.7318	2.025
228.7941	2.025
228.8612	2.025
228.9713	1.013
229.0289	3.038
229.156	241.400
229.3071	1.013
229.3839	2.025
229.4185	4.051
229.4675	4.051
229.5373	1.013
229.6046	1.013
229.662	1.013
229.7246	2.025
229.8832	1.013
229.9792	2.025
230.1548	31.450
230.2192	3.513
230.4406	2.025
230.496	2.419
230.5514	3.038
230.6763	2.025
230.7148	2.025
230.8138	3.038
230.8725	4.051
230.9601	2.025
231.0286	5.063
231.129	9.820
231.2062	1.915
231.2504	5.063
231.3113	5.063
231.3939	1.013
231.4672	5.063
231.5191	1.013
231.5978	4.051
231.7027	1.013
231.7982	2.025
231.8566	2.025
231.9045	3.038
232.0451	6.076
232.2285	2.043
232.2865	2.025
232.3489	2.025
232.3972	1.013
232.5037	4.051
232.5954	2.025
232.6631	2.025
232.7163	1.013
232.803	1.013
232.9581	1.013
233.0399	2.025
233.1473	82.150
233.4184	2.015
233.4754	3.038
233.5486	3.038
233.606	2.025
233.7125	2.025
233.7611	1.013
233.8578	1.013
233.9545	2.025
234.0421	1.013
234.1327	3.513
234.3814	1.013
234.4154	2.025
234.5172	2.025
234.634	1.013
234.6849	3.038
234.7434	1.427
234.7918	3.038
234.8858	2.025
234.9637	2.025
235.0415	1.013
235.1466	102.800
235.2941	2.025
235.4151	7.074
235.5566	1.013
235.5956	1.013
235.6828	1.013
235.7317	1.013
235.7802	1.013
235.985	1.013
236.1537	8.421
236.2938	3.038
236.3692	1.899
236.5691	1.013
236.6173	1.013
236.6664	2.025
236.7396	2.025
236.8381	2.025
236.9102	1.013
236.9638	2.025
237.1419	85.020
237.2663	1.947
237.4029	2.019
237.461	3.034
237.5613	3.038
237.6673	3.368
237.7059	4.051
237.8766	1.013
238.0037	1.013
238.0684	3.038
238.2233	1.553
238.2872	1.013
238.3358	1.013
238.4192	2.025
238.5174	4.051
238.5611	1.013
238.6986	3.038
238.7664	1.013
238.845	1.013
238.9234	1.013
238.9627	1.013
239.1434	91.520
239.2057	4.191
239.2816	3.038
239.3355	2.025
239.4472	5.895
239.5062	3.132
239.6098	1.013
239.6583	1.013
239.7635	3.038
239.8593	2.025
240.0831	2.034
240.1455	3.333
240.2096	1.872
240.3162	1.013
240.3848	1.013
240.4536	1.013
240.4929	1.013
240.5747	4.051
240.6698	1.013
240.8074	1.013
240.9054	1.013
241.0536	2.025
241.1569	213.500
241.2696	1.013
241.4273	4.055
241.5256	1.013
241.5751	1.013
241.723	1.013
241.9199	2.025
242.1547	21.200
242.2316	5.595
242.3239	2.025
242.4176	2.015
242.4976	4.797
242.5762	2.025
242.6453	2.025
242.7236	2.025
242.8419	2.025
242.8823	5.081
242.9641	2.395
243.0248	1.013
243.1727	58.900
243.3112	1.013
243.4214	5.165
243.4765	3.038
243.5286	1.013
243.6059	5.063
243.7252	4.051
243.8301	2.025
243.8996	2.025
244.3022	4.051
244.3799	1.013
244.4888	1.013
244.5627	2.025
244.6625	3.038
244.7814	3.038
244.9293	2.025
245.0245	4.051
245.1469	47.760
245.2969	3.038
245.4079	2.650
245.5352	2.025
245.5896	2.025
245.7386	2.025
245.8427	2.025
245.8932	3.038
245.9671	1.013
246.007	1.013
246.146	1.179
246.5234	2.966
246.6436	1.013
246.6829	2.025
246.8098	3.038
246.8622	2.025
246.9217	1.013
247.0163	2.025
247.0813	2.395
247.1563	41.710
247.2623	2.457
247.375	2.025
247.5398	1.013
247.659	1.013
247.699	2.025
247.7784	1.013
247.8336	2.025
247.8809	2.379
247.9586	1.013
248.008	1.013
248.0829	1.781
248.2878	2.025
248.4577	2.241
248.5074	2.894
248.5977	1.013
248.7222	2.025
248.7831	2.587
248.842	2.025
248.9316	2.025
249.0172	3.038
249.07	3.752
249.1597	53.490
249.2486	1.444
249.3471	1.013
249.3872	1.013
249.522	1.953
249.597	1.013
249.6673	2.025
249.7777	1.013
249.8513	2.459
249.9075	2.025
249.9774	1.013
250.1581	10.470
250.2104	2.949
250.3814	3.038
250.4941	1.665
250.554	2.025
250.8248	2.025
250.8898	1.013
251.0459	4.051
251.1696	208.900
251.3148	3.038
251.4669	5.698
251.6332	1.013
252.0053	2.025
252.1793	43.780
252.2397	4.338
252.3171	1.013
252.5586	1.013
252.6545	2.025
252.7558	2.025
252.8408	1.013
252.8941	5.063
252.941	2.025
253.0172	2.025
253.1646	312.300
253.2913	3.038
253.4425	11.740
253.5156	3.038
253.612	2.025
253.6874	1.013
253.7584	3.038
253.8698	2.025
253.9653	2.025
254.0408	1.013
254.0812	1.013
254.1609	74.730
254.2709	3.015
254.3239	3.038
254.3783	3.779
254.4392	5.966
254.5406	3.038
254.6371	2.025
254.6777	2.025
254.7388	2.025
254.7939	2.025
254.8637	5.738
254.9458	2.025
255.0316	1.013
255.0859	4.051
255.173	93.130
255.3023	5.584
255.4163	3.543
255.4652	3.849
255.5958	3.038
255.7055	4.051
255.8016	1.013
255.8692	3.038
255.9989	2.025
256.0798	1.045
256.1495	1.463
256.3082	3.038
256.4097	2.025
256.4772	3.038
256.5721	4.051
256.6227	2.025
256.689	2.025
256.8407	2.025
256.907	2.025
257.0089	3.038
257.4749	6.076
257.5374	3.038
257.6285	1.013
257.689	1.013
257.799	3.038
257.8675	2.025
257.9134	2.025
257.9995	2.025
258.0608	2.025
258.3202	2.025
258.4196	3.038
258.6771	2.025
258.7383	7.089
258.8099	1.013
259.0337	2.025
259.078	3.862
259.3035	3.038
259.3495	1.013
259.4509	1.615
259.5746	1.013
259.667	1.013
259.9622	1.013
260.1532	10.060
260.33	1.013
260.473	1.966
260.6373	1.013
260.9436	1.013
261.5534	1.743
261.6307	1.013
261.6917	1.013
261.7635	1.013
262.3795	1.013
262.7794	1.013
262.9131	1.013
263.016	1.987
263.1765	26.010
263.3283	2.025
263.5603	1.013
263.6531	1.013
263.6995	2.025
263.8177	1.013
263.8589	1.013
263.9622	1.013
264.1792	2.641
264.5693	1.013
264.7293	2.025
264.9084	4.051
264.9613	1.013
265.179	299.900
265.3149	3.038
265.4548	8.669
265.632	1.013
265.6786	2.025
265.7403	2.025
265.7971	1.013
265.8596	1.013
266.1974	53.340
266.2704	1.571
266.3554	1.013
266.438	1.013
266.4846	2.025
266.6766	1.013
266.7693	2.025
266.824	3.038
266.9428	4.189
267.0435	1.851
267.1011	2.731
267.1777	123.800
267.3008	4.051
267.4854	4.698
267.5447	2.737
267.619	1.013
267.688	3.038
267.7893	2.025
267.8884	2.025
268.007	2.006
268.0751	4.727
268.1748	23.630
268.2472	6.481
268.381	3.960
268.515	4.051
268.5674	2.025
268.6299	2.025
268.7388	2.025
268.8012	2.025
268.9103	2.025
268.9757	7.089
269.0423	2.416
269.1883	439.900
269.2794	3.023
269.3415	2.025
269.4725	20.750
269.5652	2.025
269.6388	2.988
269.6903	2.025
269.7727	2.025
269.8573	3.038
269.9453	2.025
270.0339	3.038
270.0968	3.879
270.195	58.900
270.2888	2.025
270.4263	5.045
270.4942	3.038
270.5908	2.025
270.6609	3.038
270.7163	2.025
270.7711	3.033
270.8756	5.063
270.9762	2.025
271.0438	4.051
271.0863	2.157
271.1845	198.000
271.3264	2.025
271.4267	3.284
271.4791	9.881
271.5532	6.076
271.6658	1.013
271.7625	6.076
271.9639	3.074
272.0307	1.013
272.1106	2.936
272.1594	3.936
272.2257	4.863
272.2822	1.862
272.3968	1.013
272.5018	4.051
272.6008	2.013
272.658	1.976
272.716	2.025
272.7939	5.598
272.8541	4.051
272.9194	6.366
273.0596	4.941
273.2757	1.290
273.3369	2.865
273.407	2.025
273.4858	1.013
273.5479	1.013
273.5989	2.777
273.7501	3.038
273.8421	2.025
273.8939	2.017
273.9678	2.000
274.0076	4.045
274.5134	1.013
274.5762	1.013
274.7235	3.038
274.7705	2.025
274.9016	1.013
274.9692	3.933
275.0732	2.854
275.1802	182.600
275.3433	1.013
275.4645	3.754
275.5321	1.013
275.6429	1.855
275.7531	1.013
275.9006	1.013
275.9587	1.991
276.017	1.013
276.1797	32.270
276.3022	2.229
276.3849	2.025
276.5958	2.025
276.7112	2.025
276.7641	1.994
276.823	1.964
276.8698	1.013
277.0223	3.038
277.3136	1.552
277.3762	2.025
277.4915	2.025
277.5802	4.051
277.6345	1.912
277.7878	1.013
277.9983	2.025
278.0624	1.013
278.4431	1.013
278.6168	1.912
278.7072	1.013
278.7814	3.038
279.3739	2.025
279.4588	1.013
279.5653	1.013
279.6074	2.013
279.8188	1.013
279.9458	1.013
280.0915	3.217
280.4448	1.013
280.5719	1.013
280.6516	2.025
280.7067	3.038
280.8429	2.025
281.0074	1.013
281.0813	1.013
281.1886	191.800
281.395	2.025
281.5032	8.876
281.6346	1.013
281.6867	1.013
281.799	2.025
281.9334	4.051
282.0651	2.025
282.1916	47.170
282.2893	2.657
282.3629	2.025
282.4108	1.013
282.5067	1.013
282.6421	3.180
282.7627	1.013
282.8527	2.025
282.9245	3.038
283.194	175.600
283.3486	1.013
283.4713	4.051
283.5486	3.038
283.6633	2.025
283.8288	3.038
283.8928	2.025
283.9731	2.025
284.2002	31.850
284.4426	2.025
284.5876	1.013
284.7311	2.025
284.7903	1.013
284.8725	3.038
284.9577	4.051
285.0577	2.025
285.1885	31.240
285.3197	2.025
285.4324	3.038
285.5811	4.051
285.7095	4.051
285.8071	1.013
285.9037	2.025
286.0551	4.051
286.1864	1.380
286.2634	1.569
286.3324	1.013
286.493	2.025
286.8038	2.025
286.9225	1.013
286.9651	2.025
287.019	1.013
287.2053	24.210
287.3515	1.013
287.4592	1.013
287.5822	2.025
287.6572	2.025
287.894	2.025
287.9965	2.025
288.0503	2.025
288.2	1.403
288.4318	2.025
288.4912	1.013
288.577	2.025
288.6626	1.013
288.7707	1.013
288.8895	1.013
288.9674	3.038
289.1705	2.774
289.2374	1.038
289.3088	1.013
289.719	1.013
289.881	1.013
290.0106	2.025
290.4204	1.013
290.7658	1.013
291.3605	1.013
291.7711	1.013
291.9131	1.013
292.0424	1.013
292.1077	1.013
292.7657	4.051
292.8438	1.013
292.8868	1.013
292.9797	2.025
293.1905	842.100
293.3323	2.025
293.4873	55.350
293.6199	2.025
293.8428	1.013
294.0522	3.038
294.1944	189.300
294.4133	3.038
294.5071	8.541
294.6064	3.038
294.6963	8.470
294.844	7.089
294.9214	6.076
295.0655	6.076
295.201	16.620
295.3099	4.051
295.3758	4.051
295.4522	6.076
295.5215	3.038
295.5771	2.025
295.6482	3.038
295.6958	5.057
295.7615	5.420
295.8339	7.089
295.8887	5.063
296.0041	4.051
296.0983	3.038
296.1938	11.440
296.3079	4.051
296.3751	4.051
296.4984	2.025
296.5748	2.092
296.6765	10.130
296.7441	2.025
296.827	3.282
296.9711	3.351
297.0367	1.298
297.131	6.113
297.306	2.025
297.4813	1.013
297.5249	1.013
297.6343	2.025
297.7243	3.038
297.7759	1.013
297.8822	3.038
297.9287	1.013
298.1233	3.584
298.1988	2.568
298.3177	2.025
298.4106	2.025
298.4764	3.038
298.5256	2.025
298.6628	1.013
298.8188	3.038
298.9471	1.013
299.0453	2.025
299.2005	67.020
299.4624	3.038
299.5617	1.013
299.7704	4.051
299.8456	1.013
299.9006	1.013
299.978	2.025
300.0988	3.038
300.2003	21.360
300.5598	2.025
300.6469	1.013
300.7427	2.845
300.7939	3.038
300.8783	1.013
300.9224	2.025
301.0181	3.038
301.1952	41.850
301.2965	1.854
301.4061	3.038
301.5706	1.013
301.6922	1.013
301.9835	2.025
302.0454	1.013
302.1004	1.013
302.2651	1.186
302.4519	1.013
302.5182	1.013
302.6285	1.013
302.7054	1.013
302.9481	2.025
303.0812	1.013
303.1923	11.920
303.3229	1.013
303.4883	2.025
303.5492	2.025
303.688	1.013
303.7758	2.025
303.9088	1.013
304.0081	1.013
304.2058	1.319
304.3053	2.025
304.3606	1.013
304.5165	1.013
304.6159	1.013
304.7704	1.013
304.8979	2.025
305.0584	1.013
305.5175	2.025
305.6559	1.013
305.7995	1.013
305.8607	2.025
305.9883	1.013
306.5538	2.025
306.7921	2.025
307.0644	1.013
307.3975	1.013
307.6425	1.013
307.9757	1.013
308.3091	1.013
308.6314	1.013
309.0437	1.013
309.183	2.025
309.3891	1.013
309.6561	1.013
310.0247	1.013
310.0921	1.013
310.3478	1.013
310.505	1.013
310.5824	1.013
310.817	1.013
310.9048	4.051
311.0518	1.013
311.2003	941.400
311.3981	2.025
311.512	72.910
311.6103	1.013
311.6561	1.013
311.7331	1.013
311.8449	1.013
311.9799	1.013
312.0642	2.025
312.2036	276.100
312.4056	5.063
312.52	16.200
312.5977	4.555
312.6616	5.572
312.7367	2.279
312.7973	3.038
312.859	4.051
312.934	5.221
313.0384	4.051
313.209	54.680
313.4117	6.805
313.4632	3.489
313.5566	5.798
313.6244	5.100
313.7081	9.683
313.8301	1.013
313.9023	5.311
314.0018	4.708
314.1057	4.945
314.1931	15.730
314.3172	3.038
314.4227	4.695
314.5019	7.089
314.6629	5.063
314.7619	8.606
314.8418	1.750
314.9534	1.013
315.0091	2.025
315.077	3.038
315.1334	2.025
315.2355	6.076
315.3634	2.025
315.4474	2.025
315.5074	3.038
315.6056	3.305
315.6919	4.051
315.9031	4.051
315.9872	1.013
316.087	3.038
316.1462	1.013
316.2355	1.013
316.3337	3.038
316.4836	1.013
316.5399	1.013
316.6871	1.013
316.7995	1.013
316.8724	2.025
316.9742	2.025
317.0248	1.013
317.1605	1.013
317.2616	1.013
317.3213	3.038
317.4205	2.025
317.4871	1.013
317.5779	1.013
317.6286	2.025
317.7822	1.013
317.8323	2.025
317.8714	1.013
318.2329	1.013
318.3125	2.025
318.4336	3.038
318.6001	3.126
318.7421	1.013
318.8269	2.025
318.9796	1.013
319.0869	2.025
319.149	1.013
319.2851	1.013
319.3864	1.013
319.7039	1.013
319.8062	1.013
320.0551	1.013
320.1126	1.013
320.4297	2.025
320.5204	1.013
320.8031	1.013
320.9964	1.013
321.1098	1.013
321.2347	1.013
321.3088	2.025
321.3595	1.013
321.5194	1.013
321.6094	1.013
321.7295	2.025
321.8712	1.013
322.0704	1.901
322.3381	1.013
322.4516	1.013
322.9639	1.013
323.488	1.013
324.0292	2.025
324.9938	1.013
325.4964	1.013
325.9423	1.013
326.8347	1.013
326.9153	1.013
327.0929	2.025
327.4881	1.013
327.6259	1.013
327.8444	1.013
327.9015	1.013
328.2345	1.013
328.3832	1.013
328.5201	1.013
328.6471	1.013
328.7334	2.025
328.8535	1.013
328.9261	3.038
329.0415	3.038
329.1989	40.510
331.1906	40.510
331.3949	10.140
331.456	12.070
331.5723	11.140
331.667	11.140
331.7502	12.220
331.8136	6.815
331.9386	12.430
332.0585	8.940
332.1907	17.250
332.2617	7.089
332.347	14.010
332.421	14.360
332.5277	12.150
332.5916	11.160
332.6845	8.224
332.8099	12.030
332.8969	8.695
332.9553	5.399
333.0636	11.690
333.1729	7.359
333.2809	4.164
333.3498	7.935
333.4236	4.103
333.5086	3.961
333.5663	5.063
333.6223	4.051
333.7405	14.180
333.807	4.051
333.8825	3.038
333.9756	2.025
334.037	4.051
334.1593	5.063
334.3067	10.130
334.388	5.196
334.4751	5.063
334.5445	3.636
334.6324	3.038
334.7286	1.013
334.9255	1.013
334.9833	3.038
335.0561	3.038
335.1365	5.063
335.2379	2.025
335.3698	3.038
335.4231	2.469
335.511	2.025
335.6527	4.051
335.88	3.038
336.0042	2.025
336.0706	3.038
336.2489	1.013
336.3527	2.025
336.4698	2.025
336.5159	1.013
336.6146	2.025
336.7452	2.789
336.8192	1.013
336.8766	1.013
336.9803	1.013
337.1199	2.025
337.1783	1.013
337.2595	1.013
337.3652	1.013
337.487	2.025
337.5509	1.013
337.6326	1.013
337.6906	1.013
337.8664	1.013
337.976	2.025
338.0757	2.025
338.1396	2.025
338.2321	2.025
338.2968	1.013
338.4254	1.013
338.4772	2.025
338.5762	2.025
338.705	1.013
338.8571	1.013
338.9151	2.025
339.1128	1.013
339.4628	2.025
339.7892	1.013
339.8369	1.013
339.9531	1.013
340.0992	2.025
340.3034	1.013
340.5377	1.013
340.9464	1.013
341.0989	1.013
341.239	2.011
341.5084	1.013
341.6056	3.038
341.9893	1.013
342.1881	2.025
342.3527	1.013
342.5757	1.013
342.7041	1.013
343.6794	1.013
344.4192	1.013
345.3603	1.013
345.842	1.013
346.4214	1.013
346.503	1.013
346.5969	1.013
346.7625	1.013
346.928	2.025
347.0186	3.038
347.2262	1825.000
347.3705	2.025
347.5495	171.500
347.7482	3.038
347.8375	1.013
348.0255	1.013
348.2251	476.400
348.3979	2.025
348.5534	34.340
348.6797	6.076
348.7713	5.063
348.8862	6.377
348.9538	11.120
349.0341	8.237
349.0824	9.508
349.2313	102.600
349.3681	8.299
349.4369	7.385
349.5124	12.150
349.6077	8.358
349.7349	10.310
349.8513	8.757
349.9568	7.073
350.0425	8.291
350.114	10.070
350.2367	30.140
350.3852	3.772
350.4728	10.960
350.5282	8.101
350.59	5.884
350.6847	12.340
350.7825	4.390
350.863	10.940
350.9922	9.475
351.1052	6.240
351.1905	5.169
351.2568	3.026
351.3345	5.308
351.4251	10.810
351.5033	2.244
351.6416	2.429
351.7556	4.051
351.8286	5.389
351.9491	3.038
352.0315	4.294
352.1096	2.025
352.1886	2.288
352.2701	4.051
352.3717	4.946
352.4714	5.582
352.5741	5.063
352.6628	2.041
352.7375	3.314
352.8687	3.038
352.9482	2.025
353.1129	6.492
353.2426	4.051
353.4014	3.038
353.5441	3.038
353.6685	2.025
353.8008	2.025
353.9496	1.013
354.0213	3.038
354.2346	4.051
354.3725	2.025
354.5219	2.025
354.5815	1.013
354.6528	1.013
354.7868	3.038
354.9382	1.013
355.0339	3.038
355.1092	3.038
355.3163	3.038
355.4157	1.013
355.4995	1.013
355.5492	2.025
355.6114	3.038
355.7273	2.025
355.8222	1.013
355.883	2.025
356.0267	1.013
356.0799	3.038
356.2289	1.013
356.3622	1.013
356.5887	1.013
356.6786	2.025
356.7973	2.025
357.0083	1.013
357.1636	1.013
357.6662	1.013
357.7498	1.013
357.8943	1.013
357.9901	1.013
358.0375	1.013
358.2411	1.013
358.433	1.013
358.4818	1.013
358.8168	1.013
359.2612	1.013
359.922	1.013
360.1026	1.013
360.3367	2.025
360.4023	1.013
360.5362	1.013
360.5956	1.013
361.498	1.013
361.5479	1.013
361.8478	1.013
362.1383	1.013
362.5231	1.013
362.8246	1.013
362.9203	1.013
363.7061	1.013
363.84	1.013
364.4075	1.013
365.2418	1.013
365.3391	1.013
366.4535	1.013
367.2923	1.013
368.5321	1.013
368.8973	1.013
370.5653	1.013
370.8884	2.025
372.8372	1.013
373.5462	1.013
373.8534	1.013
375.7429	1.013
378.8075	1.013
379.5088	1.013
380.1762	1.013
380.2261	1.013
384.2764	1.013
384.3389	1.013
385.0228	1.013
393.3346	1.013
393.4092	1.013
395.3097	1.013
396.8475	1.013
398.4524	1.013
401.1443	2.025
402.0395	1.013
402.6991	1.013
402.892	1.013
403.3362	1.013
405.2862	1.013
407.7124	1.013
410.4674	1.013
411.136	1.013
417.5056	1.013
418.2441	1.013
434.0548	1.013
434.3852	1.013
437.8126	1.013
440.92	1.013
443.5717	1.013
448.724	1.013
468.4096	1.013
475.4979	1.013
482.6396	1.013
491.2523	1.013
493.2892	1.013
495.5865	1.013
496.5481	1.013
498.2691	1.013
499.7581	1.013
500.8191	1.013
501.7704	1.013
504.1843	1.013
507.691	1.013
509.8936	1.013
513.1169	1.013
517.921	1.013
518.8163	1.013
522.8785	1.013
524.6489	1.013
529.2016	1.013
530.7006	1.013
537.0545	1.013
540.6877	1.013
542.2932	1.013
545.7971	1.013
557.1794	1.013
562.5906	1.013
573.8413	1.013
582.1135	1.013
583.8898	1.013
587.9984	1.013
591.3537	1.013
596.2468	1.013
598.2593	1.013

Name: GLYCOCHENODEOXYCHOLATE
PRECURSORMZ: 450.3257	432.3089;414.302
PRECURSORTYPE: [M+H]+	[M+H-H2O]+;[M+H-2H2O]+
INSTRUMENTTYPE: LC-ESI-QTOF
INSTRUMENT: Waters XeVo ESI-QTOF
SMILES: C[C@H](CCC(=O)NCC(=O)O)[C@H]1CC[C@@H]2[C@@]1(CC[C@H]3[C@H]2[C@@H](C[C@H]4[C@@]3(CC[C@H](C4)O)C)O)C
COLLISIONENERGY: Survey CID 20
RETENTIONTIME: -1
IONMODE: Positive
Links: CAS 16564-43-5
Num peaks: 603
60.9698	1.013
63.979	1.013
69.0681	1.013
69.0893	1.013
69.6853	1.013
70.774	1.013
71.0515	1.013
72.5169	1.013
72.544	1.013
74.0952	1.013
76.0401	39.490
76.4422	1.013
76.9916	1.013
77.3033	1.013
77.3371	1.013
77.5209	1.013
77.9397	1.013
78.0738	1.013
78.1917	1.013
79.2992	1.013
79.3216	1.013
79.8473	1.013
80.9095	1.013
82.1625	1.013
83.0611	1.013
85.0591	3.038
85.9672	1.013
86.2317	1.013
89.9542	1.013
90.4896	1.013
91.7356	1.013
93.0696	1.013
93.9638	1.013
95.08	3.038
97.1035	1.013
101.0512	1.013
103.0607	1.013
107.089	5.063
108.4157	1.013
109.0895	1.013
109.9185	1.013
110.0644	1.013
111.0571	1.013
111.1171	1.013
113.049	1.013
114.048	2.025
114.2309	1.013
115.0587	1.013
115.0788	1.013
115.256	1.013
115.6303	1.013
116.9558	1.013
119.1103	1.013
120.3651	1.013
121.1059	7.089
122.2138	1.013
123.0281	1.013
123.1152	2.025
123.8939	1.013
125.5495	1.013
126.0969	1.013
127.6309	1.013
130.0546	1.013
131.0803	3.038
131.3002	2.025
133.0702	1.013
133.1004	4.051
134.9846	1.013
135.0877	1.013
135.124	9.114
136.1207	1.013
136.7868	1.013
137.0612	1.013
137.0982	1.013
137.2319	1.013
138.9144	1.013
139.4526	1.013
141.872	1.013
143.2716	1.013
145.0979	5.054
146.812	1.013
147.1211	5.063
148.0583	1.013
148.1201	1.013
148.1817	1.013
149.0896	3.038
149.1347	12.680
150.1316	1.013
150.8622	1.013
151.1069	5.066
151.5166	1.013
151.5401	1.013
151.8132	1.013
154.503	2.025
155.2674	1.013
156.0619	4.051
157.0568	1.013
157.0964	2.025
158.0806	61.770
159.1066	8.101
159.1759	1.013
159.3679	1.013
159.4398	1.013
159.736	1.013
159.9282	1.013
160.1165	2.025
160.7706	1.013
161.1252	23.290
161.8086	1.013
162.1392	1.013
162.3651	1.013
162.9146	1.013
163.0359	1.013
163.1085	14.180
163.1501	4.548
164.1461	1.013
164.3004	1.013
164.4222	1.013
164.8694	1.013
165.0809	1.013
165.1257	2.025
165.2275	1.013
165.6839	1.013
165.7654	1.013
166.9668	1.013
167.2534	1.013
168.0081	1.013
171.1222	2.025
172.0928	4.051
173.1091	2.025
174.115	1.013
174.299	1.013
175.1438	35.440
175.3882	1.013
176.1481	4.051
176.8512	1.013
176.8849	1.013
176.927	1.013
177.091	2.025
177.1318	8.101
177.1799	1.013
177.7708	1.013
177.9567	1.013
178.1173	1.013
179.091	1.013
179.5321	1.013
179.7444	1.013
181.3107	1.013
183.0983	1.013
184.0983	2.025
185.0753	1.013
185.1295	3.038
186.1068	2.025
187.1449	8.101
187.5575	1.013
188.1391	2.025
188.3566	1.013
189.1087	4.427
189.1637	24.940
189.724	1.013
190.0123	1.013
190.1757	3.038
191.1445	2.025
191.1925	2.025
191.8859	1.013
192.3162	1.013
192.3997	2.025
192.6502	1.013
192.7468	1.013
193.0815	1.013
193.9979	1.013
194.3158	1.013
196.5567	1.013
197.1212	2.025
198.0964	3.038
198.1588	1.013
198.3551	1.013
199.144	6.156
199.3826	1.013
200.1124	2.025
201.1573	33.420
202.159	6.076
202.5261	1.013
202.7245	1.013
203.0677	1.013
203.1652	18.260
203.3113	1.013
203.9985	1.013
204.166	2.025
204.2973	1.013
204.4419	1.013
205.1627	2.025
205.4491	1.013
206.1215	1.013
206.1629	2.025
206.7497	1.013
207.5796	1.013
209.066	2.025
210.1251	1.013
211.1443	10.130
211.4035	1.013
211.5602	1.013
211.6801	1.013
211.984	1.013
212.1321	7.089
213.1452	6.076
214.139	2.025
214.9185	1.013
215.181	28.140
215.2437	1.013
215.4948	1.013
215.7925	1.013
216.1412	2.025
216.1877	5.063
216.3746	2.025
216.4815	2.025
217.1999	2.025
217.6299	1.013
217.8262	1.013
217.9481	1.013
218.1555	2.956
219.1092	1.013
219.203	1.013
219.6066	1.013
219.935	1.013
220.7912	1.013
220.9513	1.013
224.1453	4.460
225.0385	1.013
225.1731	4.051
225.8423	2.025
226.1351	8.486
226.168	4.450
227.1759	7.089
227.6696	1.013
228.1286	1.013
228.2431	1.013
228.6356	1.013
229.0768	1.013
229.1477	7.089
229.1943	5.063
229.3356	1.013
229.8062	1.013
230.1954	4.170
230.7099	1.013
230.787	1.013
231.2589	1.013
231.4226	1.013
232.1943	1.013
232.402	2.025
233.0639	1.013
234.042	1.013
234.1098	2.025
234.4393	1.013
234.6628	1.013
236.8319	1.013
237.1736	1.013
238.1456	31.390
239.1655	7.089
239.7268	1.013
239.9328	1.013
240.15	4.051
240.2081	1.013
240.4535	2.025
240.5415	1.013
240.7679	1.013
240.8173	1.013
241.1218	1.013
241.1941	4.051
241.6538	1.013
241.8506	1.013
242.1858	1.013
243.1712	5.694
243.2129	10.510
243.3111	1.013
243.489	1.013
243.8845	1.013
244.1912	2.025
244.8453	1.013
244.9246	1.013
245.1624	1.013
245.2326	1.013
247.6983	1.013
249.7776	1.013
250.1367	7.089
250.4487	1.013
251.1111	1.013
251.187	3.038
252.1574	26.330
252.4374	1.013
253.1561	3.038
253.3746	1.013
253.7381	1.013
254.192	2.025
255.2085	2.025
255.3752	1.013
255.4157	1.013
255.609	1.013
256.176	2.025
256.2572	1.013
256.4404	1.013
256.4902	1.013
257.1975	8.101
258.198	3.038
258.4628	1.013
259.1663	1.013
260.9753	1.013
261.2922	1.013
261.3438	2.025
261.7634	1.013
263.1184	1.013
264.0956	1.013
264.1595	13.160
264.8575	1.013
265.1367	1.013
265.198	2.025
265.5494	1.013
266.1709	11.140
266.4592	1.013
267.1781	2.025
267.235	1.013
267.4937	1.013
268.251	2.025
268.4799	1.013
269.0499	1.013
269.0919	1.013
269.1651	1.013
269.2221	2.025
269.7886	1.013
272.1152	1.013
278.1674	6.076
279.1646	4.778
280.1876	6.076
281.1769	1.013
281.2409	1.013
281.9316	1.013
283.1464	1.013
283.2313	1.013
286.2565	1.013
290.183	1.013
290.4854	1.013
292.1837	6.076
292.9954	1.013
293.1909	1.013
293.2353	1.013
294.1139	1.013
294.2173	2.025
295.0392	1.013
295.2413	3.038
296.2421	2.025
297.2458	11.420
297.3937	1.013
298.2024	2.025
299.0678	1.013
300.8117	1.013
301.0868	1.013
302.6502	1.013
302.7052	1.013
302.8704	1.013
303.9639	1.013
304.2015	10.080
305.2057	5.063
306.189	4.822
306.2248	9.336
307.164	1.013
307.2195	1.013
307.5315	1.013
308.1865	1.013
308.9879	1.013
309.5004	1.013
309.8786	1.013
311.2467	4.051
311.2979	2.025
311.9911	1.013
312.3049	1.013
313.1891	1.013
313.515	1.013
315.3229	1.013
318.1678	3.038
318.2145	4.051
319.1369	1.013
320.2273	4.051
320.3507	1.013
320.7584	1.013
321.257	94.930
321.5678	3.038
321.8593	1.013
322.2643	32.410
323.2649	3.971
323.4649	1.013
323.6471	1.013
323.704	2.025
323.9321	3.038
324.1429	2.025
324.3995	2.025
324.7309	1.013
324.9937	2.025
325.3531	2.025
325.52	1.013
326.1937	1.013
326.4	1.013
326.6753	1.013
326.9604	1.013
328.8771	1.013
330.1881	1.013
330.8915	1.013
331.7783	1.013
332.2211	16.200
333.2396	4.051
333.779	1.013
334.2178	1.013
334.7167	1.013
336.7661	2.025
338.7628	1.013
338.8968	2.025
339.0773	1.013
339.1585	1.013
339.2672	141.500
339.5207	1.013
339.5684	1.013
339.7307	1.013
339.8368	1.013
339.9296	1.013
340.0808	1.013
340.2679	42.530
340.4217	1.013
340.5555	2.025
341.0345	2.025
341.0865	1.013
341.2772	9.865
341.3851	2.025
341.6383	1.013
341.7198	1.013
341.7664	1.013
341.9951	2.025
342.2034	3.038
342.2762	2.025
342.5168	1.013
342.6857	2.025
342.739	1.013
342.8798	2.025
343.0219	1.013
343.12	2.025
343.2608	2.025
343.3312	2.025
343.4136	2.025
343.7712	1.013
343.8198	1.013
343.9484	1.013
344.1013	1.013
344.1598	1.013
344.2303	1.013
345.0538	1.013
345.1364	1.013
345.3021	1.013
345.3481	1.013
345.4431	2.025
346.6673	1.013
347.2293	2.025
348.2498	1.013
349.1389	1.013
349.3636	1.013
350.4177	1.013
352.1631	1.013
353.0798	1.013
354.0452	1.013
356.2656	1.013
356.9587	1.013
357.2693	1.013
358.0497	1.013
361.2267	2.025
361.9197	1.013
368.2818	2.025
371.3337	1.013
372.2139	1.013
372.2616	1.013
372.3248	1.013
373.8046	1.013
375.5334	1.013
391.2005	1.013
393.7358	1.013
396.2924	5.063
397.3019	1.013
398.0103	1.013
399.2876	1.013
402.2288	1.013
409.7993	1.013
410.7241	1.013
413.6192	1.013
414.1217	1.013
414.2987	491.500
414.4351	1.972
414.5216	1.013
414.6478	14.180
414.8173	1.013
414.9349	1.013
415.3017	135.800
415.4377	2.025
415.5799	1.013
415.6957	4.051
415.7589	2.025
415.9064	3.038
416.1094	1.013
416.1783	2.025
416.3089	26.900
416.438	4.009
416.5565	5.063
416.6739	3.038
416.7222	2.025
416.8358	3.038
416.9968	3.038
417.1826	2.025
417.2939	5.063
417.3976	3.038
417.4936	1.013
417.6933	2.025
417.9318	2.025
418.0315	2.025
418.1013	1.013
418.1915	1.013
418.3019	4.051
418.3886	4.277
418.4828	2.025
418.5692	1.013
418.7121	1.013
418.7882	1.013
418.9177	1.013
419.1071	2.025
419.1899	1.013
419.3792	2.025
419.4436	3.038
419.6851	1.013
420.007	1.013
420.0735	1.013
420.2128	3.038
420.3595	1.013
420.5655	1.013
420.701	4.051
420.8982	2.025
421.0214	1.013
421.1239	2.025
421.1909	1.013
421.2943	1.013
421.424	1.013
421.6337	1.013
421.7633	3.038
422.1128	2.025
422.692	2.025
423.353	1.013
423.6128	1.013
423.8259	2.025
423.9762	1.013
424.0924	3.038
424.3953	1.013
424.604	1.013
424.6709	1.013
426.1073	1.013
426.2913	1.013
426.7363	1.013
427.3383	1.013
427.4022	1.013
428.6348	2.025
430.6577	1.013
430.762	1.013
431.1585	2.025
431.3527	1.013
432.1179	1.013
432.3029	10.130
432.6846	1.013
433.1591	1.013
433.2912	6.076
433.7004	1.013
434.2267	1.013
434.8354	1.013
435.1768	2.025
435.2584	1.013
436.1692	1.013
436.3688	1.013
437.4024	1.013
438.0108	1.013
438.2511	1.013
439.1655	1.013
440.0283	1.013
440.6418	1.013
444.0647	1.013
446.4062	1.013
451.1038	1.013
451.3334	1.013
451.9382	1.013
452.9604	1.013
455.5811	1.013
458.7118	1.013
464.2316	2.025
476.9774	1.013
480.5275	1.013
489.6119	1.013
499.5003	1.013
546.212	1.013
547.5167	1.013
549.9779	1.013
552.1205	1.013
582.587	1.013
588.6595	1.013

Name: LAUROYLCARNITINE
PRECURSORMZ: 344.2806
PRECURSORTYPE: [M+H]+
INSTRUMENTTYPE: LC-ESI-QTOF
INSTRUMENT: Waters XeVo ESI-QTOF
SMILES: CCCCCCCCCCCC(=O)O[C@H](CC(=O)[O-])C[N+](C)(C)C
COLLISIONENERGY: Survey CID 20
RETENTIONTIME: -1
IONMODE: Positive
Links: CAS 25518-54-1
Num peaks: 386
57.0666	3.038
60.0808	87.320
60.5743	1.013
60.6681	1.013
60.7172	1.013
60.8064	1.013
60.9698	1.013
61.087	5.063
61.1126	2.025
61.2817	1.013
61.3709	1.013
61.4059	1.013
61.4504	1.013
61.5296	1.013
61.6043	1.013
61.893	1.013
62.593	1.013
63.8575	1.013
64.258	1.013
65.9397	1.013
66.7396	1.013
67.0192	1.013
67.0453	1.013
71.0812	9.114
71.6296	1.013
71.699	1.013
72.4358	1.013
72.6625	1.013
77.9928	2.025
81.0693	2.025
82.5191	1.013
82.9051	1.013
83.0897	2.025
83.7728	1.013
83.8944	1.013
83.9876	1.013
84.2258	1.013
84.7088	1.013
85.0278	731.900
85.1	1.013
85.1911	39.490
85.3048	1.013
85.4338	1.013
85.4623	3.038
85.5389	1.013
85.6034	1.013
85.6253	3.038
85.6534	2.025
85.688	5.063
85.7177	2.025
85.7735	5.063
85.8261	1.013
85.8649	2.025
85.9232	6.076
85.9701	2.025
85.9916	3.303
86.0304	34.430
86.0815	2.974
86.1147	6.492
86.1582	2.025
86.1845	5.063
86.2441	6.070
86.2909	4.051
86.3435	1.013
86.3756	2.025
86.4046	3.038
86.4292	2.025
86.4586	2.025
86.5147	1.013
86.5497	7.100
86.6266	5.063
86.7207	3.038
86.7594	2.025
86.7885	2.025
86.8384	2.025
86.9215	3.038
86.9651	3.038
87.0282	4.051
87.0756	2.025
87.0987	1.013
87.1701	1.013
87.1992	2.025
87.2262	2.025
87.2526	1.013
87.3204	2.025
87.4241	1.013
87.4838	1.013
87.5547	2.025
87.6618	1.013
87.691	1.013
87.7299	2.025
87.7892	2.025
87.8455	2.025
88.0412	1.013
88.113	1.013
88.1786	1.013
88.2141	1.013
88.2973	1.013
88.3929	1.013
88.5954	1.013
88.655	2.025
88.8818	1.013
88.9296	2.025
89.0613	1.013
89.1209	1.013
89.2406	2.025
89.4025	1.013
89.5339	1.013
89.7379	2.025
89.8281	1.013
89.888	1.013
89.9719	1.013
90.6826	1.013
91.1177	2.025
91.1844	1.013
91.2811	1.013
92.2763	1.013
92.3191	1.013
93.0574	1.013
94.3819	1.013
94.4007	1.013
95.0888	4.441
96.0898	4.051
96.2128	1.013
96.9035	1.013
97.0721	1.013
97.2343	1.013
97.2593	1.013
97.2844	1.013
97.967	1.013
98.0106	1.013
98.4253	1.013
98.7523	1.013
98.8026	1.013
98.979	1.013
99.0388	2.025
99.1176	1.013
99.2187	1.013
99.3387	1.013
101.0671	2.025
102.656	1.013
103.0673	1.013
106.3935	1.013
109.101	12.150
109.8387	1.013
110.1112	1.013
110.4039	1.013
111.2573	1.013
114.0887	1.013
119.2762	1.013
123.1054	4.051
127.0519	1.013
127.2804	1.013
130.3075	1.013
132.0709	1.013
138.8545	1.013
139.0712	1.013
143.0822	1.013
144.1013	20.250
144.5028	1.013
145.1052	3.038
145.1814	1.013
145.8923	2.025
147.296	1.013
147.4576	1.013
147.6423	1.013
151.1269	1.013
155.0701	1.013
163.0845	1.013
164.0406	1.013
164.2923	1.013
165.0809	1.013
165.1545	3.038
165.3741	1.013
166.1001	1.013
167.1141	1.013
167.8521	1.013
167.8931	1.013
168.2875	1.013
171.5912	1.013
176.1021	1.013
177.045	1.013
183.1736	75.970
183.2955	1.013
183.4027	2.025
183.4671	1.013
183.9995	1.013
184.0341	1.013
184.1822	9.928
184.2489	1.013
184.421	1.013
184.6619	1.013
184.9243	2.025
184.9806	1.013
185.0237	1.013
185.1185	1.013
185.1615	1.013
185.4032	1.013
185.6447	1.013
185.7656	1.013
186.6734	1.013
186.7601	1.013
186.8466	1.013
187.2884	1.013
187.896	1.013
187.9569	1.013
188.2609	1.013
188.3827	1.013
188.896	1.013
189.6282	1.013
190.0123	1.013
194.1304	1.013
197.1343	1.013
197.6508	1.013
198.1588	1.013
199.034	1.013
200.1169	1.013
201.1855	5.063
202.1747	2.025
202.6797	1.013
203.1847	1.013
205.104	1.013
205.1584	1.013
205.2222	1.013
206.4309	1.013
207.1322	1.013
213.6477	1.013
221.1115	1.013
236.0234	1.013
240.0214	1.013
240.2375	17.220
241.1419	1.013
241.2356	5.710
241.6438	1.013
242.3238	1.013
243.1274	2.025
245.0531	1.013
245.7182	1.013
247.968	1.013
251.6135	1.013
253.6781	1.013
255.153	1.013
256.0136	1.013
257.1508	1.013
258.1576	1.013
258.9929	1.013
259.177	1.013
261.0771	1.013
266.9246	1.013
267.1933	1.013
277.925	1.013
278.0515	1.013
279.215	1.013
283.392	1.013
285.1112	1.013
285.2043	114.100
285.5123	2.025
285.7208	1.013
285.9135	1.013
286.2068	15.190
286.5363	1.013
286.6536	1.013
286.7447	2.141
286.9699	2.025
287.1473	1.013
287.2065	3.038
287.3943	1.013
287.5227	1.013
287.6414	1.013
287.8996	1.013
288.0709	1.013
288.3943	1.013
288.534	2.025
288.577	1.013
288.8566	1.013
289.0513	1.013
289.3629	1.013
289.525	1.013
290.0432	1.013
290.4313	1.013
290.8199	1.013
290.874	1.013
291.0576	1.013
291.1555	1.013
291.8797	1.013
292.1828	1.013
293.5597	1.013
294.2933	2.025
300.1976	1.013
301.0982	1.013
306.0321	1.013
306.9752	1.013
307.0415	1.013
311.0401	1.013
311.2073	1.013
311.4095	1.013
316.3032	1.013
323.6355	1.013
329.1654	1.013
329.2164	2.025
331.8952	1.013
337.0386	1.013
339.6487	1.013
343.2144	2.025
343.8313	1.013
343.9365	1.013
344.0542	1.013
344.1353	1.013
344.278	430.700
344.4901	1.013
344.6081	19.050
344.9251	1.013
344.9833	1.013
345.1863	3.038
345.2765	101.500
345.4648	1.013
345.59	2.025
345.8508	4.051
346.0437	2.025
346.1083	2.025
346.1963	5.063
346.2813	19.240
346.4433	1.013
346.621	2.025
346.6884	3.038
346.7443	2.025
346.9038	1.013
347.0693	3.038
347.134	4.051
347.2869	6.076
347.3997	3.038
347.4624	3.038
347.548	2.025
347.801	1.013
347.896	1.013
348.0027	2.025
348.1083	2.025
348.2803	2.025
348.4403	2.025
348.8404	4.051
348.9727	4.051
349.1607	1.013
349.2929	1.013
349.3637	2.025
349.4932	1.013
349.5519	1.013
349.6826	2.025
349.7651	1.013
349.837	1.013
350.0652	3.038
350.1558	1.013
350.217	1.013
350.3814	1.013
350.4888	1.013
350.7017	1.013
350.8093	1.013
350.9759	1.013
351.1179	1.013
351.4514	1.013
352.5793	1.013
352.8174	1.013
352.9129	1.013
353.151	1.013
353.4605	1.013
353.6867	1.013
354.6406	1.013
354.7609	1.013
354.9629	1.013
355.4995	1.013
357.2589	1.013
357.6661	1.013
358.5169	1.013
365.6779	1.013
366.2838	1.013
371.6639	1.013
374.1351	1.013
420.8516	1.013
421.0877	1.013
426.8928	1.013
430.0536	1.013
467.683	1.013
495.7992	1.013
511.7083	1.013
564.3962	1.013
579.7623	1.013
596.8822	1.013
Name: LYSINE
PRECURSORMZ: 147.1103
PRECURSORTYPE: [M+H]+
INSTRUMENTTYPE: LC-ESI-QTOF
INSTRUMENT: Waters XeVo ESI-QTOF
SMILES: NCCCC[C@H](N)C(O)=O
COLLISIONENERGY: Survey CID 20
RETENTIONTIME: -1
IONMODE: Positive
Links: CAS 56-87-1
Num peaks: 203
51.7648	1.013
53.7987	1.013
55.0562	3.038
55.9388	1.013
55.9862	1.013
56.0148	1.013
56.0505	44.360
56.4993	1.013
57.0487	1.013
57.0745	2.210
57.2306	1.013
57.3696	1.013
57.4365	1.013
57.5231	1.013
57.6389	1.013
57.7249	1.013
57.8118	1.013
57.8796	1.013
58.0383	1.013
58.0725	1.013
58.2315	1.013
58.4883	1.013
58.5514	1.013
58.9349	1.013
59.0663	1.013
60.0739	1.013
61.7497	1.013
62.5890	1.013
64.9276	3.038
65.0439	2.025
67.0544	23.290
67.6919	1.013
67.8013	1.013
68.0491	2.025
68.5756	1.013
68.8010	1.013
68.9378	1.013
68.9560	2.025
68.9904	3.038
69.0587	1.013
69.1220	1.013
69.1958	1.013
69.2199	2.025
69.7874	1.013
69.9888	1.013
70.1373	1.013
70.2755	1.013
70.7381	1.013
70.9621	1.013
71.0419	1.013
71.6629	1.013
71.9311	1.013
72.0818	2.025
72.1033	1.013
72.6965	1.013
73.0885	2.025
74.0225	11.140
74.6980	1.013
75.4061	1.013
79.0053	3.038
83.6699	1.013
83.9369	1.013
84.0798	854.500
84.1458	1.013
84.2394	64.810
84.4831	1.013
84.5620	2.025
84.6260	2.025
84.6462	1.013
84.6756	1.013
84.7109	2.025
84.7404	3.441
84.7605	2.025
84.7837	2.025
84.8211	1.013
84.8485	4.051
84.8854	1.013
84.9344	3.226
84.9527	2.025
84.9933	2.025
85.0214	4.258
85.0827	56.820
85.1540	2.025
85.2002	3.959
85.2364	4.781
85.2801	3.038
85.3123	2.025
85.3507	2.025
85.3999	6.950
85.4392	5.063
85.4910	2.025
85.5205	4.051
85.5597	2.352
85.6349	3.038
85.6722	2.025
85.6905	2.025
85.7211	3.038
85.7817	4.051
85.8074	2.025
85.8574	1.013
85.8958	3.038
85.9352	4.552
85.9526	4.976
85.9806	1.013
86.0102	3.038
86.0276	2.025
86.0787	2.313
86.1073	2.089
86.1276	3.038
86.2002	4.625
86.2513	2.025
86.2863	3.087
86.3246	2.025
86.3686	2.025
86.3983	1.013
86.4367	4.051
86.5810	2.025
86.6574	1.013
86.6871	1.013
86.7186	3.038
86.7997	2.025
86.8465	2.025
86.8703	1.013
86.9114	3.038
86.9398	3.038
86.9826	1.013
87.0117	1.013
87.0415	1.013
87.1361	2.025
87.1950	2.025
87.2543	1.013
87.4076	5.063
87.4498	2.025
87.6989	1.013
87.8771	1.013
87.9420	1.013
87.9778	2.025
88.0075	1.013
88.0430	1.013
88.0672	1.013
88.1029	1.013
88.3346	1.013
88.4540	1.013
88.5197	1.013
88.5435	2.025
88.6092	1.013
89.0147	1.013
89.0687	1.013
89.2661	1.013
89.4577	1.013
89.4879	1.013
89.6317	2.025
89.8961	1.013
89.9380	2.025
89.9800	1.013
90.0400	1.013
90.4071	1.013
90.5159	1.013
90.8958	1.013
91.0288	1.013
91.3253	1.013
91.9953	2.025
92.1746	1.013
92.6134	1.013
93.0284	1.013
93.0958	1.013
93.9657	1.013
94.4453	1.013
94.6363	1.013
95.0488	4.051
95.2911	1.013
96.5378	1.013
98.1069	1.013
101.3270	1.013
102.0910	2.025
103.6488	1.013
105.2029	1.013
110.0069	1.013
111.0861	1.013
111.8754	1.013
112.0498	1.013
113.1322	1.013
113.9645	3.038
129.0977	1.013
130.0879	29.370
130.2922	2.025
131.0925	2.025
131.3971	1.013
147.1188	2.025
176.5009	1.013
260.7350	1.013
339.4235	1.013
348.4595	1.013
389.3173	1.013
415.7306	1.013
417.7857	1.013
423.9081	1.013
477.2214	1.013
483.8212	1.013
497.1918	1.013
578.2614	1.013
589.3026	1.013
589.9495	1.013

Name: HISTIDINE
PRECURSORMZ: 156.0753
PRECURSORTYPE: [M+H]+
INSTRUMENTTYPE: LC-ESI-QTOF
INSTRUMENT: Waters XeVo ESI-QTOF
SMILES: N[C@@H](Cc1c[nH]cn1)C(O)=O
COLLISIONENERGY: Survey CID 20
RETENTIONTIME: -1
IONMODE: Positive
Links: CAS 5934-29-2
Num peaks: 166
54.9449	3.038
55.301	1.013
55.9379	4.051
56.0495	5.063
56.5186	1.013
56.948	1.013
57.0197	1.013
60.9808	1.013
63.0112	1.013
66.0284	1.013
67.0466	1.013
68.0518	6.941
69.2647	1.013
69.9412	1.013
72.9349	4.051
72.9881	2.025
73.9685	2.025
73.9985	1.013
74.0259	1.013
74.6321	1.013
74.9445	1.013
75.318	1.013
75.4724	1.013
75.7474	1.013
75.8633	1.013
77.0368	9.114
78.0396	2.025
81.0396	2.025
81.0593	1.013
82.0519	16.200
82.9876	1.013
83.0579	68.860
83.1434	1.013
83.2246	1.013
83.8614	1.013
84.0624	5.063
84.1634	1.013
84.361	1.013
84.3903	1.013
84.4309	1.013
84.4599	1.013
85.8395	1.013
85.9481	2.025
85.9806	1.013
87.9482	1.013
88.4716	1.013
88.958	2.025
90.8416	1.013
91.9562	1.013
93.0451	57.720
93.6407	1.013
93.9044	1.013
94.0436	5.063
94.193	1.013
94.2118	1.013
94.2381	3.038
94.3159	1.013
94.7166	1.013
94.9449	1.013
95.0587	23.140
95.724	1.013
95.7864	1.013
95.9228	1.013
95.9725	7.089
96.022	1.013
96.0657	2.025
96.0906	1.013
96.3453	1.013
96.3886	1.013
96.4945	1.013
96.7933	1.013
96.9618	1.013
96.9807	1.013
97.9765	3.038
98.1004	1.013
98.2072	1.013
98.2515	1.013
98.9371	2.025
98.9623	1.013
99.322	1.013
99.9322	6.076
100.9132	1.013
101.7739	1.013
103.037	1.013
104.1203	1.013
108.8273	1.013
109.0455	1.013
109.489	1.013
109.834	1.013
109.9537	1.013
109.9739	1.013
110.0699	258.600
110.1249	1.302
110.256	14.180
110.5458	1.013
110.6125	1.013
110.6392	3.038
110.7258	1.013
110.7689	2.025
110.8059	2.025
110.946	1.013
111.0698	16.640
111.1932	1.013
111.213	1.013
111.2597	3.038
111.32	1.013
111.3468	1.013
111.3935	1.013
111.4267	1.013
111.4603	2.025
111.5741	2.025
111.7614	1.013
111.7951	1.013
111.8354	1.013
111.8886	1.013
111.909	1.013
112.0767	1.013
112.11	1.013
112.1637	1.013
112.224	1.013
112.2982	1.013
112.607	2.025
112.6741	1.013
112.7281	1.013
112.7485	1.013
112.9503	1.013
112.9703	1.013
113.2533	1.013
113.3814	1.013
113.4019	1.013
113.6314	1.013
113.7397	1.013
113.7733	1.013
113.9623	3.038
113.9944	3.038
114.0673	2.025
114.1724	1.013
114.5923	1.013
115.1427	1.013
115.3669	1.013
115.9804	1.013
116.1031	1.013
116.5474	1.013
116.9833	3.038
117.0197	1.013
117.2733	1.013
117.3695	1.013
117.5685	1.013
120.0477	1.013
125.6086	1.013
126.1846	1.013
136.9971	1.013
138.0671	1.013
138.9245	1.013
139.059	1.013
148.98	1.013
154.0492	1.013
154.4663	1.013
154.8961	2.025
155.3178	1.013
156.9646	1.013
157.0799	2.025
232.9139	1.013
338.9438	1.013
369.0009	1.013
470.9318	1.013

Name: CREATININE
PRECURSORMZ: 114.0662
PRECURSORTYPE: [M+H]+
INSTRUMENTTYPE: LC-ESI-QTOF
INSTRUMENT: Waters XeVo ESI-QTOF
SMILES: CN1CC(=O)NC1=N
COLLISIONENERGY: Survey CID 20
RETENTIONTIME: -1
IONMODE: Positive
Links: CAS 60-27-5
Num peaks: 95
52.2166	1.013
52.6709	1.013
52.9383	1.013
55.0236	1.013
56.0529	1.013
56.3377	1.013
56.9385	1.013
59.0663	1.013
60.0687	1.013
69.0297	2.025
69.0747	1.013
70.0643	3.213
71.0154	2.025
71.0687	1.013
72.0442	13.020
72.4485	1.013
72.5126	1.013
72.9291	1.013
73.0537	2.025
74.1788	1.013
75.0382	1.013
75.8085	1.013
79.0415	1.013
79.0616	2.025
80.2913	1.013
80.3084	1.013
80.9684	1.013
86.0696	43.540
86.2452	1.013
87.0767	4.051
87.2959	1.013
87.3786	1.013
87.4793	1.013
87.9781	1.013
88.1503	1.013
88.2334	1.013
88.3346	1.013
88.3884	1.013
88.7163	1.013
90.04	1.013
90.4495	1.013
90.6907	1.013
97.0865	1.013
98.1257	1.013
98.9826	3.038
101.1358	1.013
105.6581	1.013
113.0847	1.013
113.9017	1.013
114.0663	139.000
114.264	4.051
114.3075	1.013
114.3619	1.013
114.694	1.013
114.7892	1.013
114.83	2.025
114.8638	1.013
114.8981	1.013
114.9863	1.013
115.0685	14.510
115.183	1.013
115.3123	1.013
115.3466	1.013
115.5033	1.013
115.5983	1.013
115.6529	2.025
115.7212	1.013
115.7754	1.013
115.8711	1.013
115.9121	2.025
116.0007	1.013
116.1644	1.013
116.1852	1.013
116.3693	1.013
116.8279	1.013
116.8757	1.013
116.9719	1.013
117.2529	1.013
117.8574	1.013
118.6842	1.013
120.5412	1.013
121.2725	1.013
125.4244	1.013
128.0991	1.013
166.7982	1.013
203.5322	1.013
309.9522	1.013
312.2324	1.013
397.9921	1.013
409.7185	1.013
474.0165	1.013
480.2586	1.013
524.0475	1.013
593.1051	1.013
595.4675	1.013

Name: ADENINE
PRECURSORMZ: 136.0619
PRECURSORTYPE: [M+H]+
INSTRUMENTTYPE: LC-ESI-QTOF
INSTRUMENT: Waters XeVo ESI-QTOF
SMILES: Nc1ncnc2[nH]cnc12
COLLISIONENERGY: Survey CID 20
RETENTIONTIME: -1
IONMODE: Positive
Links: CAS 6055-72-7
Num peaks: 549
50.789	1.013
52.0201	1.013
52.3772	1.013
53.1043	1.013
53.8036	1.013
53.9387	1.013
54.3952	1.013
54.9575	1.013
54.9809	1.013
55.0296	25.320
56.0287	2.025
56.5612	1.013
56.5807	1.013
56.7996	1.013
56.947	3.038
57.3071	1.013
58.3723	1.013
58.6044	1.013
59.3101	1.013
59.8187	1.013
64.2746	1.013
64.8191	1.013
65.0112	16.200
65.2382	1.013
65.854	1.013
66.0147	3.038
66.1575	2.025
66.2501	1.013
66.3379	1.013
66.3998	1.013
67.0282	87.060
67.2389	1.013
67.2961	1.013
67.3269	1.013
67.3949	1.013
67.5144	1.013
67.5564	1.013
67.6967	1.013
67.8426	1.013
67.9212	1.013
67.9887	1.013
68.0234	3.044
68.0428	6.070
68.0778	1.013
68.1406	1.013
68.2821	1.013
68.5098	2.025
68.6699	1.013
68.9274	1.013
68.988	2.025
69.017	1.013
69.1801	1.013
69.2062	1.013
69.2278	1.013
69.5547	1.013
69.7874	1.013
69.9462	1.013
70.047	1.013
70.5677	1.013
71.5984	1.013
71.6841	1.013
71.7487	1.013
72.1465	1.013
72.5612	1.013
72.5776	1.013
73.0916	1.013
73.2539	1.013
74.0424	1.013
74.3261	1.013
74.953	2.025
76.6931	1.013
76.9821	1.013
77.0156	8.502
77.4834	1.013
77.8013	1.013
77.8294	1.013
78.0197	1.013
78.367	1.013
78.4851	1.013
79.002	1.013
80.405	1.013
82.0391	41.520
82.2219	1.013
82.8723	1.013
82.9587	1.013
83.0392	3.038
83.5484	1.013
83.583	1.013
83.7106	1.013
83.7799	1.013
83.9369	1.013
84.0355	1.013
84.2214	1.013
84.2531	2.025
84.5649	1.013
84.9558	1.013
86.1278	1.013
87.5147	1.013
89.3558	1.013
89.9737	1.013
90.8416	1.013
90.9444	1.013
91.0471	1.013
91.1437	1.013
91.8044	1.013
91.8828	1.013
91.9377	1.013
92.0227	190.400
92.1261	1.013
92.1879	4.051
92.3453	1.013
92.5827	1.013
92.7049	1.013
92.76	2.025
92.813	4.631
92.8635	1.013
92.9123	3.038
92.946	2.025
92.9712	3.733
93.0263	22.280
93.0714	2.025
93.1442	2.025
93.1961	2.025
93.3098	1.013
93.3681	2.025
93.4321	1.013
93.4688	1.013
93.5364	1.013
93.6072	2.025
93.806	2.025
93.8309	1.013
93.9044	1.013
94.0386	315.100
94.1252	1.013
94.1501	2.025
94.2102	12.150
94.2609	1.013
94.3036	1.013
94.3778	2.025
94.4207	1.013
94.5993	1.013
94.6181	1.013
94.6704	2.025
94.7412	1.013
94.763	2.025
94.7967	2.025
94.834	1.013
94.9018	2.025
94.9666	2.025
95.0004	2.025
95.0404	35.890
95.0994	1.013
95.1793	1.013
95.2786	2.025
95.3158	1.013
95.3559	2.025
95.4606	4.051
95.5219	3.038
95.5696	1.013
95.5972	3.038
95.625	1.013
95.6621	1.013
95.6809	1.013
95.7181	1.013
95.7927	2.025
95.8732	1.013
95.9287	1.013
95.9476	2.025
96.0532	1.013
96.0717	1.013
96.165	1.013
96.233	1.013
96.2703	1.013
96.3265	1.013
96.3703	1.013
96.5595	2.025
96.6625	2.025
96.7809	1.013
96.8057	1.013
96.8805	1.013
96.9271	2.025
97.093	1.013
97.1115	1.013
97.3302	1.013
97.3618	1.013
97.7309	1.013
97.7995	1.013
97.8496	1.013
97.9123	1.013
97.9749	1.013
98.0191	1.013
98.4584	1.013
98.5153	1.013
98.6284	1.013
98.6853	1.013
98.7165	1.013
99.2586	1.013
99.8656	1.013
100.3285	1.013
100.9303	3.038
101.1551	1.013
101.2377	1.013
101.5951	1.013
101.7934	1.013
102.504	1.013
102.6452	1.013
102.9536	1.013
103.0051	1.013
103.8554	1.013
105.4242	1.013
106.6569	1.013
107.0502	1.013
107.7722	1.013
108.411	1.013
108.8999	1.013
108.9729	1.013
109.0503	101.400
109.2174	1.013
109.3102	1.013
109.8542	1.013
109.8906	2.025
109.9936	1.013
110.049	11.140
110.1401	1.013
110.2663	1.013
110.3927	1.013
110.5656	1.013
110.8925	1.013
110.9792	1.013
111.0594	2.025
111.1129	1.013
111.2863	1.013
111.4	1.013
111.661	1.013
111.9493	1.013
112.0901	1.013
112.1503	1.013
112.6073	1.013
113.3279	1.013
113.4425	1.013
113.7663	1.013
113.976	1.013
114.0503	1.013
114.8572	1.013
115.5508	1.013
115.8508	1.013
116.0757	1.013
116.2531	1.013
116.4038	1.013
117.4379	1.013
117.5067	1.013
117.6715	1.013
117.72	1.013
117.8987	1.013
118.7668	1.013
118.8084	1.013
118.9037	3.093
118.9366	2.025
119.0342	1620.000
119.2231	40.510
120.0443	81.010
120.2561	40.510
120.5065	40.510
120.8892	40.510
120.9239	40.510
121.0395	25.750
121.1109	3.038
121.1397	2.384
121.1859	2.025
121.2169	4.051
121.245	3.038
121.2947	3.714
121.388	6.191
121.4332	4.637
121.4736	6.461
121.5165	4.997
121.566	4.051
121.6189	7.089
121.6462	4.051
121.6875	2.299
121.7213	4.531
121.778	4.922
121.8174	3.038
121.8469	3.180
121.8901	5.063
121.9379	3.038
121.9647	2.873
122.0029	4.051
122.0585	3.542
122.1043	2.025
122.1287	2.243
122.1849	3.038
122.2381	4.051
122.2797	1.013
122.3287	2.025
122.4049	4.051
122.5119	2.796
122.5489	2.025
122.6447	5.063
122.6861	1.013
122.7174	2.025
122.7424	2.025
122.8301	2.025
122.8859	4.016
122.925	1.013
122.9743	3.038
123.0374	1.013
123.1569	1.013
123.2484	1.013
123.2903	1.013
123.382	4.051
123.4312	2.025
123.4806	1.013
123.5267	2.025
123.59	4.051
123.6706	1.013
123.6916	1.013
123.7481	1.013
123.8116	2.025
124.115	2.025
124.1855	1.013
124.2562	1.013
124.2846	1.013
124.3445	2.025
124.3764	1.013
124.4293	2.025
124.5036	1.013
124.5813	1.013
124.6451	2.025
124.7654	1.013
124.925	2.025
125.0587	2.025
125.1762	2.025
125.3959	1.013
125.6302	1.013
125.758	1.013
125.8219	1.013
125.9785	2.025
126.4625	1.013
126.7334	1.013
126.7546	1.013
127.2794	2.025
127.3546	1.013
127.3903	1.013
127.5977	1.013
127.6191	1.013
127.7766	1.013
127.8912	1.013
128.2499	1.013
128.5154	1.013
128.5944	2.025
128.6735	1.013
128.7238	1.013
128.9253	1.013
128.9971	1.013
129.1914	1.013
129.3429	1.013
130.3101	1.013
130.3752	1.013
130.5636	1.013
130.8676	1.013
131.768	1.013
131.9934	1.013
132.1027	1.013
132.1754	2.025
132.7151	1.013
132.8904	2.025
132.9999	1.013
133.0585	1.013
133.4461	1.013
133.8342	1.013
134.9873	1.013
135.0316	1.013
135.481	1.013
135.6582	1.013
135.8132	1.013
135.865	2.025
135.9425	2.025
136.0607	2471.000
136.2825	81.010
137.0712	81.010
137.3163	40.510
138.2085	40.510
138.2664	6.987
138.2968	8.000
138.3414	6.987
138.3798	6.384
138.4166	4.051
138.445	4.048
138.4791	3.344
138.528	11.550
138.6115	7.194
138.6614	5.869
138.6909	3.957
138.7562	5.063
138.8032	5.978
138.8625	10.130
138.9047	4.939
138.9506	3.980
138.9948	5.063
139.0368	3.038
139.0894	4.051
139.1262	9.114
139.21	8.042
139.2439	3.038
139.29	7.524
139.3696	2.025
139.4254	2.025
139.4628	1.013
139.4927	1.013
139.5451	1.013
139.6042	1.858
139.6353	3.038
139.7669	4.051
139.8096	2.353
139.8599	4.051
139.9195	4.051
139.972	1.013
140.0171	1.013
140.0467	3.038
140.0805	2.025
140.1448	3.038
140.2195	1.013
140.2533	2.025
140.3135	2.025
140.3595	5.063
140.4447	1.013
140.4705	2.025
140.4975	3.038
140.5231	2.025
140.5797	2.025
140.6249	1.013
140.6551	1.013
140.7431	3.038
140.8205	2.025
140.907	2.025
140.937	2.025
140.9706	1.013
141.0573	3.038
141.0987	1.013
141.1326	3.038
141.1814	1.013
141.3621	1.013
141.4225	1.013
141.4826	2.025
141.5432	3.092
141.7315	1.013
141.7768	1.013
141.8597	1.013
141.8825	1.013
141.9126	1.013
141.9593	4.051
142.041	1.013
142.1089	1.013
142.328	2.025
142.5549	1.013
142.7022	2.025
142.782	1.013
142.8198	1.013
142.8577	1.013
142.9032	1.013
142.9864	1.013
143.0471	1.013
143.1	1.013
143.1381	1.013
143.1608	1.013
143.6766	1.013
143.9199	2.025
144.0491	1.013
144.8257	1.013
144.8562	1.013
144.9936	1.013
145.024	1.013
145.2302	1.013
145.2531	1.013
145.3523	1.013
145.4975	1.013
145.5281	1.013
145.6045	1.013
145.6809	1.013
145.857	1.013
146.3777	1.013
146.4619	1.013
146.9454	1.013
147.1606	1.013
147.4451	1.013
147.8301	1.013
147.9534	1.013
148.6786	1.013
148.7869	1.013
149.9794	1.013
150.0493	1.013
150.4142	1.013
150.4841	1.013
151.1688	1.013
152.0114	1.013
152.8092	1.013
153.5778	1.013
153.9784	1.013
156.0293	1.013
157.187	1.013
158.7477	1.013
159.627	1.013
159.8833	1.013
160.806	1.013
162.094	1.013
163.4115	1.013
164.7344	1.013
166.4629	1.013
167.1093	1.013
168.2414	1.013
169.8231	1.013
173.8928	1.013
177.6645	1.013
178.3323	1.013
179.0692	1.013
181.3997	1.013
183.7969	1.013
203.4059	1.013
218.5327	1.013
221.031	1.013
227.4447	1.013
238.8497	1.013
259.0899	1.013
298.7561	1.013
303.7265	1.013
328.7003	1.013
335.5822	1.013
356.6301	1.013
363.8824	1.013
373.8482	1.013
377.4467	1.013
378.2467	1.013
408.7816	1.013
413.3694	1.013
416.8404	1.013
417.347	1.013
426.9133	1.013
471.8657	1.013
474.1007	1.013
475.1635	1.013
490.4182	1.013
493.0613	1.013
500.757	1.013
526.0659	1.013
551.3723	1.013
563.5195	1.013
566.3057	1.013
590.2084	1.013

Name: INOSINE-MONOPHOSPHATE
PRECURSORMZ: 349.0539
PRECURSORTYPE: [M+H]+
INSTRUMENTTYPE: LC-ESI-QTOF
INSTRUMENT: Waters XeVo ESI-QTOF
SMILES: C1=NC(=O)C2=C(N1)N(C=N2)[C@H]3[C@@H]([C@@H]([C@H](O3)COP(=O)(O)O)O)O
COLLISIONENERGY: Survey CID 20
RETENTIONTIME: -1
IONMODE: Positive
Links: CAS 131-99-7
Num peaks: 42
94.6673	1.013
97.0276	4.051
97.1863	1.013
98.157	1.013
111.0128	1.013
126.0994	1.013
137.0446	74.850
137.2494	1.013
137.5243	1.013
138.0504	9.114
138.1713	1.013
138.2905	3.038
138.4023	1.013
138.5515	1.013
138.5887	1.013
138.6186	1.013
138.7527	1.013
139.0291	1.013
139.0814	1.013
139.1486	1.013
139.313	1.013
139.373	1.013
139.7696	1.013
140.5723	1.013
140.9105	1.013
144.4218	1.013
156.7583	1.013
163.5898	1.013
179.0608	1.013
189.8503	1.013
191.9687	1.013
198.1449	1.013
247.4351	1.013
253.0775	1.013
259.9264	1.013
271.7962	1.013
272.8939	1.013
310.8345	1.013
311.5274	1.013
315.0368	1.013
497.1633	1.013
514.7056	1.013

Name: EPINEPHRINE
PRECURSORMZ: 184.0962
PRECURSORTYPE: [M+H]+
INSTRUMENTTYPE: LC-ESI-QTOF
INSTRUMENT: Waters XeVo ESI-QTOF
SMILES: CNC[C@@H](C1=CC(=C(C=C1)O)O)O
COLLISIONENERGY: Survey CID 20
RETENTIONTIME: -1
IONMODE: Positive
Links: CAS 51-43-4
Num peaks: 216
56.0551	2.025
56.9425	13.160
56.9719	1.013
57.0563	13.860
57.7731	1.013
57.8359	1.013
57.9367	2.025
58.0669	10.130
58.1012	1.013
58.1832	1.013
58.2173	1.013
58.2704	1.013
58.335	3.038
59.5444	1.013
60.9463	1.013
61.0004	1.013
61.0349	1.013
61.8343	1.013
62.5243	1.013
63.2123	1.013
64.1829	1.013
65.5559	1.013
67.0569	1.013
68.9537	1.013
69.5864	1.013
70.0314	5.729
70.9142	1.013
71.1167	1.013
71.299	1.013
72.5291	1.013
72.9449	1.013
73.8299	1.013
74.9557	3.038
77.027	1.013
77.1155	1.013
78.5521	1.013
79.049	3.038
80.0643	1.013
81.0312	1.013
82.0323	1.013
83.0859	1.013
84.0471	1.013
84.8211	1.013
84.9689	3.038
85.0202	1.013
88.0372	15.020
88.9733	1.013
89.0511	1.013
89.6471	2.025
90.8714	1.013
90.9444	1.013
91.0557	2.025
91.1437	1.013
92.0593	1.013
93.9844	1.013
94.5132	1.013
95.0436	1.013
96.9493	1.013
97.0865	1.013
97.9693	50.630
98.9119	1.013
98.9591	12.120
99.284	1.013
99.4231	1.013
99.8783	1.013
99.9688	8.101
100.1317	1.013
100.1887	1.013
100.392	1.013
100.7351	1.013
100.9288	6.076
100.9641	1.013
101.5761	1.013
101.9689	2.025
102.9341	1.013
107.0486	45.570
107.1153	1.013
107.7922	1.013
107.9961	1.013
108.0519	3.038
108.2927	1.013
108.4575	1.013
108.5828	1.013
108.6357	1.013
108.8405	1.013
109.032	11.890
109.0917	1.013
109.489	1.013
109.5092	1.013
109.5756	1.013
110.0336	2.025
110.0666	1.013
110.1001	1.013
110.6724	1.013
111.1664	1.013
111.2595	1.013
111.554	1.013
111.6744	1.013
112.0831	1.013
112.9703	1.013
113.963	4.051
114.9455	1.013
119.0509	7.089
119.2303	1.013
120.0802	27.340
120.27	1.013
120.9239	1.013
121.0776	1.013
121.5868	1.013
121.7966	1.013
121.9296	1.013
122.0556	2.025
122.1674	1.013
122.3074	1.013
122.574	1.013
123.048	6.076
123.6989	1.013
123.7691	1.013
124.0443	1.013
124.0936	1.013
124.1927	1.013
124.2489	1.013
124.2987	1.013
124.8359	1.013
125.0605	3.038
125.6725	1.013
125.971	1.013
126.0708	1.013
130.0713	4.051
131.0417	1.013
131.078	1.013
131.1503	1.013
133.0564	3.038
133.095	1.013
133.1462	1.013
133.2556	1.013
134.0502	4.051
135.0421	35.440
135.3632	1.013
135.673	1.013
135.8797	1.013
136.042	3.038
136.0791	2.025
136.1751	1.013
136.6119	1.013
136.9673	1.013
137.0496	6.674
137.1009	1.013
137.1456	1.013
137.2644	1.013
137.8067	1.013
138.0671	1.013
138.1863	1.013
138.8499	1.013
139.5525	1.013
141.9503	1.013
141.9844	2.025
143.3049	1.013
144.9021	1.013
145.0699	1.013
146.0712	2.025
147.0608	2.025
147.5068	1.013
147.9765	1.013
148.069	20.250
148.2887	3.038
149.0784	6.076
149.305	1.013
149.4212	1.013
150.0647	1.013
150.1114	1.013
151.0054	1.013
151.063	35.980
151.1222	1.013
152.0624	2.025
152.1443	1.013
152.4647	1.013
152.5666	1.013
153.0677	1.013
153.3736	1.013
154.876	1.013
155.5865	1.013
164.9866	1.013
166.0856	69.540
166.2504	1.013
166.3075	1.013
166.3321	1.013
166.9619	1.013
167.0882	7.232
167.2404	1.013
167.3469	1.013
167.7487	2.025
167.8801	1.013
168.0689	1.013
168.4141	1.013
168.4552	1.013
168.6361	1.013
168.8831	1.013
168.9901	1.013
169.2209	1.013
169.3898	2.025
169.5341	1.013
169.658	1.013
169.7074	1.013
170.4346	1.013
171.9101	1.013
178.1631	1.013
180.3006	1.013
182.2713	1.013
195.9661	1.013
196.9781	1.013
376.0934	1.013
405.9193	1.013
419.5629	1.013
432.4426	1.013
486.4413	1.013

Name: SPERMIDINE
PRECURSORMZ: 146.1636
PRECURSORTYPE: [M+H]+
INSTRUMENTTYPE: LC-ESI-QTOF
INSTRUMENT: Waters XeVo ESI-QTOF
SMILES: NCCCCNCCCN
COLLISIONENERGY: Survey CID 20
RETENTIONTIME: -1
IONMODE: Positive
Links: CAS 124-20-9
Num peaks: 124
56.9431	1.013
58.0644	24.300
58.7114	1.013
58.862	1.013
59.3782	1.013
60.0639	1.013
60.1276	1.013
60.7386	1.013
60.941	1.013
61.9342	1.013
62.0538	1.013
62.9508	1.013
64.4373	1.013
64.9263	1.013
64.9469	1.013
65.0439	1.013
65.7407	1.013
70.0575	1.013
71.9255	2.025
72.0014	2.025
72.0796	230.600
72.2371	7.089
72.4213	1.013
72.4428	1.013
72.4698	1.013
72.6911	1.013
72.7718	1.013
72.8097	1.013
72.9007	3.038
72.9432	3.038
72.9726	2.025
73.084	7.089
73.1941	1.013
73.2486	1.013
73.2701	1.013
73.3602	3.038
73.4274	1.013
73.4438	1.013
73.5522	1.013
73.596	1.013
73.6284	1.013
73.7211	1.013
73.7701	1.013
73.8026	1.013
73.9387	1.013
73.966	1.013
74.0588	1.013
74.0915	2.025
74.124	1.013
74.1459	1.013
74.3644	1.013
74.4682	1.013
74.6321	1.013
74.6814	1.013
74.7609	2.025
74.953	2.025
75.0215	1.013
75.0889	3.038
75.2191	1.013
75.2743	1.013
75.6043	1.013
75.621	1.013
75.9403	2.025
76.3939	1.013
76.7931	1.013
76.9769	1.013
76.999	1.013
78.6645	1.013
78.9988	5.063
79.1938	1.013
79.5438	1.013
80.7857	1.013
81.5454	1.013
82.1587	1.013
84.0795	41.520
84.3378	1.013
84.4367	1.013
84.5998	2.025
84.7692	1.013
84.8738	2.025
84.9846	1.013
85.0551	1.013
85.0962	1.013
85.2071	1.013
85.2716	1.013
85.5639	1.013
85.6696	1.013
85.7225	1.013
86.0219	1.013
86.581	1.013
87.0179	1.013
87.859	1.013
88.988	2.025
89.9138	1.013
89.9393	5.063
91.0529	1.013
97.7494	1.013
100.068	2.025
104.0105	1.013
106.9122	1.013
110.9524	1.013
112.1092	34.840
112.7885	1.013
112.8694	1.013
113.0713	1.013
113.1252	3.038
113.3208	1.013
113.3412	1.013
113.4828	2.025
114.0233	1.013
115.0746	1.013
115.4962	1.013
116.2669	1.013
117.4792	1.013
140.6849	1.013
147.3912	1.013
147.4529	1.013
218.6634	1.013
361.4813	1.013
372.1359	1.013
419.5628	1.013
442.5406	1.013
517.0499	1.013
531.6153	1.013

Name: HISTAMINE
PRECURSORMZ: 112.0872
PRECURSORTYPE: [M+H]+
INSTRUMENTTYPE: LC-ESI-QTOF
INSTRUMENT: Waters XeVo ESI-QTOF
SMILES: NCCC1=C[N]C=N1
COLLISIONENERGY: Survey CID 20
RETENTIONTIME: -1
IONMODE: Positive
Links: CAS 56-92-8
Num peaks: 175
53.0073	1.013
54.9624	1.013
55.0475	3.038
55.3719	1.013
56.0479	2.025
56.0622	2.025
56.2809	1.013
56.9385	1.013
57.0389	1.013
57.6003	1.013
62.0288	2.025
64.4625	1.013
64.9469	1.013
65.0338	1.013
65.141	1.013
67.0206	1.013
67.0429	7.089
67.6811	1.013
68.05	87.450
68.1876	1.013
68.2297	1.013
68.46	1.013
68.6068	1.013
68.7274	1.013
68.8014	2.025
68.8697	1.013
68.9537	1.013
69.0297	2.025
69.049	4.975
69.0747	1.013
69.2118	2.025
69.3434	1.013
69.3594	1.013
69.4438	1.013
70.063	1.013
70.3015	1.013
70.4399	1.013
70.5783	1.013
70.6583	1.013
70.9379	2.025
70.9621	1.013
70.9995	1.013
71.0263	1.013
71.3471	1.013
71.4271	1.013
71.9368	4.051
72.1251	1.013
72.3401	1.013
72.5612	1.013
72.7075	1.013
72.938	9.114
72.9777	1.013
73.0479	1.013
73.7372	1.013
74.7966	1.013
74.901	1.013
74.9393	1.013
75.3071	1.013
75.428	1.013
76.7931	1.013
77.5225	1.013
77.6282	1.013
77.9582	1.013
78.025	1.013
79.8716	1.013
81.0428	5.063
82.0203	6.966
82.0545	14.180
83.0047	2.025
83.0594	42.530
83.2997	1.013
83.5424	2.025
83.6237	1.013
83.7598	2.025
84.0062	1.013
84.0791	4.051
84.4831	1.013
84.9497	1.013
86.0983	1.013
86.9882	1.013
87.0768	1.013
87.5627	1.013
89.2904	1.013
90.5457	1.013
92.2602	1.013
92.8449	1.013
94.6181	1.013
94.9045	3.038
95.0589	454.900
95.1364	1.013
95.23	19.080
95.4452	1.013
95.5572	1.013
95.5943	1.013
95.7181	2.025
95.8237	1.013
95.8485	1.013
95.927	3.324
95.9678	3.110
96.0012	3.233
96.0638	52.490
96.1244	2.025
96.1526	1.013
96.1927	2.025
96.2175	2.025
96.2512	4.051
96.2952	1.013
96.339	3.038
96.3859	2.025
96.4076	1.013
96.4383	1.013
96.4572	1.013
96.4936	4.051
96.5445	2.606
96.5751	1.013
96.6162	2.025
96.7002	1.013
96.7375	1.013
96.7716	2.025
96.7933	1.013
96.8371	1.013
96.8742	2.025
96.9616	3.522
96.9933	1.013
97.0241	1.013
97.0615	1.013
97.0805	1.013
97.1804	1.013
97.2428	2.025
97.2864	1.013
97.3737	3.932
97.3992	1.013
97.4555	2.025
97.5427	2.025
97.5927	1.013
97.6302	1.013
97.6618	1.013
97.7309	1.013
97.8327	3.038
98.1083	3.209
98.2323	1.013
98.3205	2.025
98.4458	1.013
98.7194	2.025
98.8489	1.013
98.8928	1.013
99.0691	1.013
99.2586	1.013
99.7957	1.013
101.1679	1.013
102.1774	1.013
103.2561	2.025
107.7132	1.013
108.4707	1.013
112.089	37.160
112.8019	1.013
113.0818	3.038
113.7056	1.013
113.841	1.013
113.9694	1.013
114.0891	3.038
114.7348	1.013
114.8164	1.013
114.8572	1.013
116.0417	1.013
116.4855	1.013
119.1265	1.013
119.8328	1.013
120.5344	1.013
123.8467	1.013
139.822	1.013
139.9944	1.013
141.2491	1.013
147.2989	1.013
206.4623	1.013

Name: TAURINE
PRECURSORMZ: 126.023	251.0356
PRECURSORTYPE: [M+H]+	[2M+H]+
INSTRUMENTTYPE: LC-ESI-QTOF
INSTRUMENT: Waters XeVo ESI-QTOF
SMILES: C(CS(=O)(=O)O)N
COLLISIONENERGY: Survey CID 20
RETENTIONTIME: -1
IONMODE: Positive
Links: CAS 107-35-7
Num peaks: 49
55.0612	1.013
81.0652	1.013
88.0374	1.013
97.0366	1.013
100.1063	1.013
108.011	5.063
111.5741	1.013
126.0193	103.900
126.2274	2.025
126.2557	1.013
126.7334	1.013
126.7902	1.013
126.8331	1.013
126.9116	1.013
126.9791	2.025
127.0331	1.013
127.0974	1.013
127.283	1.013
127.3903	1.013
127.4403	1.013
127.7265	1.013
127.9129	1.013
127.9519	2.025
128.0201	5.063
128.0705	2.025
128.4079	1.013
128.4651	1.013
128.7526	1.013
128.7814	1.013
128.9253	1.013
129.2492	1.013
129.4868	1.013
130.1004	1.013
130.3682	1.013
130.824	1.013
131.0343	1.013
132.2409	1.013
132.6055	1.013
133.6217	1.013
142.2524	1.013
149.9174	1.013
190.8642	1.013
192.9618	1.013
194.0991	1.013
194.7704	1.013
196.1433	1.013
201.3776	1.013
216.9428	1.013
236.9047	1.013

Name: L-CARNITINE
PRECURSORMZ: 162.1103
PRECURSORTYPE: [M+H]+
INSTRUMENTTYPE: LC-ESI-QTOF
INSTRUMENT: Waters XeVo ESI-QTOF
SMILES: C[N+](C)(C)C[C@@H](CC(=O)[O-])O
COLLISIONENERGY: Survey CID 20
RETENTIONTIME: -1
IONMODE: Positive
Links: CAS 6645-46-1
Num peaks: 446
55.1738	1.013
56.9385	1.013
57.0329	67.640
57.1657	2.025
57.4176	1.013
57.5376	1.013
57.6148	1.013
57.7989	3.038
57.8264	1.013
57.9659	1.013
58.0414	2.816
58.067	11.140
58.1546	1.013
58.3481	1.013
58.3672	1.013
58.561	1.013
58.6145	1.013
58.8959	1.013
59.0471	1.013
59.0723	19.240
59.11	1.013
59.7942	1.013
59.9705	2.025
59.9905	1.013
60.015	1.013
60.0806	423.700
60.1373	1.013
60.2208	12.150
60.2509	2.025
60.3983	1.013
60.4625	1.013
60.5142	2.025
60.5313	1.013
60.5755	1.013
60.63	2.025
60.664	2.025
60.7484	1.013
60.7731	1.013
60.7999	2.025
60.8819	3.038
60.9163	1.013
60.9591	3.038
60.9787	4.051
61.0255	11.430
61.0848	16.200
61.119	1.013
61.1441	3.038
61.2019	3.038
61.2256	2.025
61.2483	1.013
61.3347	2.025
61.3874	2.025
61.4068	2.025
61.4463	1.013
61.5013	1.013
61.5459	1.013
61.6107	1.013
61.6402	1.013
61.685	2.025
61.7051	1.013
61.7353	1.013
61.7497	1.013
61.8048	1.013
61.8343	1.013
61.8569	2.025
61.9266	2.025
62.0375	3.038
62.0992	1.013
62.1386	1.013
62.2388	1.013
62.2789	1.013
62.3062	2.025
62.389	1.013
62.4141	1.013
62.5388	1.013
62.5943	1.013
62.6142	1.013
62.6544	1.013
62.677	2.025
62.7344	1.013
62.835	1.013
62.8654	1.013
62.8853	1.013
62.9105	1.013
63.0716	1.013
63.2071	1.013
63.2727	1.013
63.3332	1.013
63.3506	2.025
63.3684	1.013
63.4795	1.013
63.5048	1.013
63.6082	2.025
63.8688	1.013
63.9549	1.013
63.9956	1.013
64.0465	1.013
64.1934	1.013
64.2746	1.013
64.2948	1.013
64.3256	1.013
64.4067	1.013
64.6255	1.013
64.6589	2.025
64.7276	1.013
64.9059	1.013
65.2638	1.013
65.4172	2.025
65.4636	1.013
65.4889	1.013
65.6226	1.013
65.941	1.013
66.7615	1.013
66.881	1.013
68.9482	1.013
69.5603	1.013
69.8349	1.013
70.7327	1.013
70.93	1.013
72.1195	1.013
73.0315	1.013
73.6615	1.013
74.7748	1.013
77.039	6.076
78.9346	1.013
78.9513	1.013
79.0587	1.013
79.7356	1.013
84.4251	1.013
84.9087	1.013
84.9614	3.038
85.0278	403.200
85.1907	20.250
85.4501	2.025
85.4994	1.013
85.6168	1.013
85.6417	3.038
85.6978	5.573
85.7667	2.025
85.8105	1.013
85.8671	4.623
85.9159	1.013
85.9454	1.013
85.9747	2.025
86.031	28.420
86.0786	3.038
86.11	2.025
86.1806	2.025
86.2279	1.013
86.2542	2.025
86.2806	2.025
86.3041	1.013
86.3516	3.038
86.3983	1.013
86.428	1.013
86.4453	1.013
86.4749	1.013
86.4988	2.025
86.6048	1.013
86.6456	1.013
86.6871	2.025
86.7106	1.013
86.7462	2.025
86.7756	1.013
86.8227	1.013
86.8642	3.038
86.923	1.013
87.0179	1.013
87.0387	2.025
87.1122	1.013
87.1837	4.051
87.2332	2.025
87.3491	1.013
87.3935	2.025
87.414	1.013
87.5623	2.025
87.6155	1.013
87.6336	1.013
87.6696	2.025
87.7998	1.013
87.9166	3.038
88.0018	1.013
88.1147	1.013
88.1683	1.013
88.2693	1.013
88.2934	1.013
88.3527	1.013
88.4241	1.013
88.5971	1.013
88.8598	1.013
89.0448	1.013
89.2661	1.013
89.6918	1.013
89.9982	1.013
90.028	1.013
90.1244	1.013
90.8175	1.013
91.5552	1.013
91.5737	1.013
91.731	1.013
92.0289	1.013
92.6802	1.013
92.9552	1.013
93.0528	1.013
94.9202	1.013
95.9104	1.013
96.6377	1.013
99.8276	1.013
100.3285	1.013
100.7096	1.013
101.9402	1.013
101.9597	1.013
102.0912	266.500
102.1514	2.025
102.2219	1.013
102.2656	7.089
102.2874	3.038
102.5232	1.013
102.5425	1.013
102.6452	1.013
102.6898	1.013
102.7798	1.013
102.8055	1.013
102.8312	1.013
102.8765	1.013
102.9215	2.025
102.9585	3.749
103.038	624.400
103.0996	19.900
103.2191	35.520
103.3087	3.038
103.3527	1.013
103.4042	1.013
103.4764	3.038
103.5071	2.025
103.5455	1.013
103.6168	1.013
103.6359	1.013
103.6875	1.013
103.7296	3.038
103.7588	1.013
103.7779	1.013
103.8265	2.025
103.875	2.025
103.9053	6.076
103.9688	2.025
104.0414	42.170
104.0847	6.076
104.1383	5.063
104.1719	1.142
104.2236	1.013
104.2462	2.025
104.2757	4.794
104.3534	4.051
104.4193	3.082
104.4798	2.025
104.5043	1.603
104.5638	1.489
104.5893	2.025
104.6188	3.038
104.6451	3.912
104.6799	2.025
104.713	2.025
104.7872	1.013
104.8252	6.071
104.8588	1.013
104.927	2.025
104.995	3.038
105.0408	7.590
105.0859	3.038
105.1219	2.025
105.1515	3.487
105.1831	1.013
105.2742	1.013
105.294	1.013
105.32	1.013
105.4045	5.304
105.5018	1.013
105.5408	1.013
105.5669	2.025
105.668	2.025
105.6909	1.013
105.7301	1.013
105.7692	1.013
105.7953	1.013
105.8146	1.013
105.8407	1.013
105.8898	2.025
105.9743	3.038
106.0558	1.013
106.1018	1.013
106.1603	1.013
106.1864	1.013
106.2487	2.025
106.3041	1.013
106.3234	1.013
106.4152	2.025
106.4543	3.038
106.5172	3.038
106.572	1.013
106.6242	2.025
106.7879	1.013
106.8597	2.025
106.886	1.013
107.0959	1.013
107.1153	1.013
107.1415	1.013
107.3974	1.013
107.8907	1.013
107.9893	1.013
108.075	2.025
108.1871	1.013
108.2067	1.013
108.4179	1.013
108.5368	1.013
108.6621	1.013
109.0518	1.013
109.072	1.013
109.1648	1.013
109.2703	1.013
109.3701	1.013
109.6415	1.013
109.7547	1.013
110.2397	1.013
110.333	1.013
110.3794	1.013
110.406	1.013
111.0861	1.013
112.4794	1.013
113.395	1.013
113.429	1.013
113.5572	1.013
114.1045	1.013
114.2467	1.013
114.5651	1.013
114.9657	1.013
115.0337	1.013
115.333	1.013
116.5266	1.013
119.0089	1.013
120.395	1.013
121.0776	1.013
122.6793	1.013
122.8337	1.013
125.3959	1.013
126.9902	1.013
127.2686	1.013
128.9253	1.013
130.6575	1.013
133.0238	3.038
135.0464	2.025
144.0871	1.013
145.8952	1.013
151.0677	1.013
155.3968	1.013
161.9891	1.013
162.0295	1.013
162.1101	271.700
162.1988	1.013
162.3391	5.063
162.4572	1.013
162.7238	1.013
162.8127	1.013
162.9097	1.013
162.9421	1.013
162.9906	2.025
163.0274	2.025
163.1142	35.440
163.1848	2.025
163.3062	1.013
163.3548	1.013
163.3953	2.025
163.4277	1.013
163.4723	2.025
163.5048	2.025
163.5898	1.013
163.6464	2.025
163.7348	5.063
163.8329	1.013
163.8865	3.106
163.918	2.970
163.9826	2.025
164.0553	7.089
164.1243	2.688
164.1737	1.013
164.2143	1.013
164.4418	1.013
164.5148	1.013
164.5636	1.013
164.6043	1.013
164.7424	1.013
164.7791	2.025
164.8157	1.013
164.8912	4.051
164.9621	1.013
164.9947	1.013
165.1048	3.038
165.2226	1.013
165.2959	1.013
165.3693	1.013
165.4589	1.013
165.5893	1.013
165.679	1.013
165.7116	1.013
165.8503	1.013
166.1605	1.013
166.5855	1.013
166.7246	1.013
167.0313	2.025
167.2976	3.038
167.6503	1.013
167.6994	1.013
167.9092	2.025
168.4305	1.013
168.4754	2.025
168.5457	1.013
169.6167	1.013
170.6248	1.013
171.1052	1.013
171.5531	1.013
171.827	1.013
173.3586	1.013
174.4698	1.013
177.8841	1.013
178.4084	1.013
188.1082	1.013
200.0671	1.013
200.9821	1.013
212.8565	1.013
254.4097	1.013
274.6447	1.013
278.1841	1.013
296.198	1.013
303.6161	1.013
308.3478	1.013
325.9154	1.013
361.397	1.013
375.4551	1.013
395.241	1.013
464.7255	1.013
482.3031	1.013
486.8055	1.013
498.0835	1.013
520.6744	1.013
527.0403	1.013
597.6364	1.013

Name: ACETYLCHOLINE
PRECURSORMZ: 146.11690
PRECURSORTYPE: [M+H]+
INSTRUMENTTYPE: LC-ESI-QTOF
INSTRUMENT: Waters XeVo ESI-QTOF
SMILES: CC(=O)OCC[N+](C)(C)C
COLLISIONENERGY: Survey CID 20
RETENTIONTIME: -1
IONMODE: Positive
Links: CAS 51-84-3
Num peaks: 274
50.5818	1.013
51.5961	1.013
54.0641	1.013
56.5569	1.013
58.0652	4.051
58.7987	1.013
59.0737	4.259
59.7846	1.013
59.8381	1.013
60.0441	2.025
60.0803	83.180
60.2162	1.013
60.5014	1.013
60.7534	1.013
60.857	1.013
60.941	1.013
60.9928	2.025
61.0077	2.025
61.0994	2.025
61.298	1.013
61.4418	1.013
61.5112	1.013
61.5659	1.013
62.0992	1.013
62.3791	1.013
62.4187	1.013
62.449	1.013
62.7546	2.025
62.845	1.013
63.2677	1.013
63.4342	1.013
63.4995	1.013
63.5352	1.013
63.8688	1.013
70.0575	1.013
71.0638	1.013
71.0824	2.025
72.0335	1.013
73.9934	1.013
79.0026	2.025
81.1848	1.013
84.0648	1.013
85.0842	1.013
85.7313	2.025
86.0934	9.114
86.2334	1.013
86.6543	2.025
86.7992	1.013
86.8642	1.013
86.9348	1.013
87.0428	2655.000
87.2062	350.700
87.2811	3.038
87.337	1.013
87.3791	2.025
87.4202	2.025
87.4883	3.038
87.5255	6.076
87.5863	1.013
87.6098	3.038
87.6454	2.025
87.6685	4.444
87.7154	7.327
87.735	6.349
87.772	10.190
87.8019	5.063
87.8232	6.766
87.8506	12.250
87.8941	8.101
87.9403	9.773
87.9711	9.467
88.0477	164.200
88.1075	7.089
88.1348	7.089
88.1881	6.001
88.2114	11.310
88.2775	12.660
88.3137	7.066
88.3494	9.114
88.3833	11.190
88.4256	7.000
88.4578	8.553
88.485	4.328
88.517	6.105
88.5492	7.329
88.5912	7.089
88.6309	5.637
88.664	9.023
88.6863	5.154
88.7268	10.330
88.7814	4.051
88.8246	8.101
88.855	4.054
88.8963	3.980
88.9253	4.051
88.9732	6.005
88.9949	4.051
89.0496	20.250
89.0785	4.051
89.1273	4.474
89.1481	5.795
89.1785	3.038
89.2271	4.051
89.2499	2.557
89.2866	5.579
89.3359	5.051
89.3712	2.025
89.3887	2.025
89.435	6.076
89.4575	4.051
89.5059	2.025
89.5319	3.038
89.5924	2.025
89.6137	3.038
89.6568	7.635
89.7075	5.063
89.7378	5.548
89.7922	5.385
89.8336	4.051
89.908	3.038
89.9355	4.051
89.9629	3.038
90.01	4.051
90.043	2.025
90.0782	4.051
90.1427	2.025
90.1905	8.428
90.2427	5.063
90.2806	1.013
90.3164	6.076
90.3516	3.038
90.4045	2.025
90.4254	1.013
90.4706	2.025
90.5366	2.025
90.5669	2.025
90.616	3.038
90.6546	1.013
90.6815	3.038
90.7268	1.013
90.7871	1.013
90.8236	2.025
90.8473	1.013
90.9139	1.013
90.941	2.025
90.9801	2.025
91.0046	1.013
91.0593	1.013
91.0954	1.013
91.1253	1.013
91.2271	3.388
91.2527	2.022
91.3119	3.038
91.35	3.038
91.404	2.025
91.4282	2.025
91.489	1.013
91.5495	1.013
91.6039	2.025
91.6463	1.013
91.7279	2.025
91.8162	2.025
91.8407	1.013
91.8828	1.013
92.047	1.013
92.1658	2.025
92.199	1.013
92.227	2.025
92.2904	3.038
92.4912	1.013
92.6557	2.025
92.6865	1.013
92.7235	2.025
92.8269	1.013
92.9122	1.013
92.9854	1.013
93.0345	2.025
93.1534	3.038
93.2366	1.013
93.371	1.013
93.5544	1.013
93.671	2.025
93.7015	2.025
94.1007	1.013
94.1748	1.013
94.3036	2.025
94.3592	1.013
94.6116	1.013
94.6673	1.013
94.7289	1.013
94.8586	1.013
95.0001	1.013
95.4824	1.013
95.6002	1.013
95.6745	1.013
95.9164	1.013
96.4324	1.013
96.6687	1.013
96.9305	1.013
96.9933	2.025
97.0307	1.013
97.2428	1.013
97.3241	1.013
97.4867	1.013
97.7244	1.013
98.0943	1.013
98.6033	1.013
98.9432	1.013
99.4165	1.013
99.467	1.013
100.062	2.025
100.4682	1.013
100.7096	1.013
100.7793	1.013
100.9575	1.013
101.1358	1.013
101.2887	1.013
101.5506	1.013
103.108	1.013
103.9523	2.025
104.1075	2.025
104.956	1.013
105.8798	1.013
106.6045	1.013
107.4237	1.013
108.4903	1.013
108.8141	1.013
108.9396	1.013
109.0917	1.013
112.8899	1.013
113.1253	1.013
121.2098	1.013
126.2984	1.013
130.991	1.013
135.0979	1.013
135.4958	1.013
135.7023	1.013
146.118	22.850
146.6844	1.013
147.03	1.013
147.1224	2.025
147.2145	1.013
147.7916	1.013
147.8301	1.013
148.2541	1.013
149.0032	1.013
176.6272	1.013
177.7405	1.013
177.9603	1.013
187.2229	1.013
251.8093	1.013
252.1108	1.013
259.4469	1.013
275.7161	1.013
296.7879	1.013
309.7294	1.013
347.1113	1.013
349.5831	1.013
366.0017	1.013
370.0487	1.013
379.9244	1.013
421.8227	1.013
450.9899	1.013
457.9047	1.013
480.3689	1.013
495.7534	1.013
497.292	1.013
507.2588	1.013
517.1665	1.013
530.4485	1.013
544.3872	1.013
568.1613	1.013
572.3373	1.013
599.5256	1.013
